c Random CNF formula
p cnf 90 200
-85 -15 -28 56 -41 -66 84 -51 -83 -81 -26 -11 -5 48 -64 -62 -42 68 71 55 -70 34 -69 -49 -87 -47 63 -43 -90 39 -22 -6 -72 29 77 -14 52 -40 -33 12 -60 10 59 -4 -74 23 16 -80 -18 45 50 -75 53 3 -32 0
-65 75 62 -54 47 -90 -86 -87 14 -15 -44 -37 -42 1 56 38 58 -48 25 -28 -85 -2 53 22 -32 -33 52 -24 -16 -51 -23 80 34 -27 -78 -40 -73 64 -13 50 26 -55 -71 -30 -43 61 -36 17 19 -7 46 -68 60 -12 83 0
69 51 -38 -19 -60 -24 -41 8 -73 -88 77 -28 89 -1 17 -50 3 56 -68 6 -74 27 42 36 -52 -13 -81 45 61 -86 -26 -46 -87 47 -55 -14 -62 -32 -9 -7 -21 25 -79 -57 -90 -59 -37 -75 -85 2 -15 -30 54 83 -66 0
42 -83 25 -47 -13 7 -37 -53 5 -40 77 4 46 72 -61 44 60 67 87 38 31 21 84 -22 -89 73 36 29 45 -69 6 -79 3 19 48 90 -8 -51 26 33 85 -15 -50 20 16 58 -56 27 -2 -43 -70 12 -49 65 68 0
37 -46 83 -38 90 -89 -61 -21 10 -74 -72 39 -62 -40 -8 35 -60 31 -84 -36 -3 -69 48 75 -29 59 -6 -19 -56 -45 53 -33 51 -30 -12 -64 24 65 -13 54 -86 58 -49 -78 43 -4 25 82 70 52 44 68 -67 32 -20 0
-40 52 73 -8 48 -70 56 -12 -16 -87 -31 -10 46 -80 29 -50 -82 -9 -51 -6 -83 -23 -37 -36 25 -54 38 -18 49 88 15 43 42 14 74 62 34 30 4 -39 -86 2 41 44 -64 -1 -89 -90 -60 -68 33 -72 28 -59 -11 0
21 42 45 -55 -67 66 70 -27 -80 40 -28 -16 17 13 44 1 -76 -15 -14 -71 22 53 -82 50 -81 84 -26 -87 -69 -64 54 89 -33 23 -83 -49 -60 -5 -37 -11 -90 19 38 -56 -48 -62 -61 2 -35 12 7 -31 -52 32 77 0
6 77 87 49 -66 -31 -42 -23 -81 90 73 15 -59 -36 -22 17 -67 -3 57 4 33 64 -68 -74 19 -80 -84 40 -47 -25 65 89 39 -10 2 48 -54 34 41 -9 -71 8 28 -43 -37 60 5 -62 26 29 78 -58 -18 79 -30 0
-11 2 -71 7 8 -80 37 31 82 -3 -59 17 -50 26 1 -69 88 -52 -15 -64 32 75 -36 -58 -84 21 60 65 -22 -79 51 33 -61 20 -47 -34 41 42 -76 16 43 48 9 87 27 -4 -89 -73 13 -35 -54 -39 68 -5 -38 0
-46 -20 32 -36 56 29 37 80 -26 87 28 -23 51 27 52 1 -33 -83 30 9 -11 88 74 -41 -38 -13 -68 57 -73 -79 40 25 19 55 81 24 34 -42 76 5 7 85 39 -21 -43 14 -48 -18 70 49 -58 -2 -72 -16 -61 0
13 -83 5 75 30 74 57 -27 44 -61 63 -39 51 14 33 -86 -11 82 24 -81 -65 52 62 -15 -6 -79 45 -64 80 -70 -2 -59 17 -29 26 40 46 78 73 -66 56 10 -23 -28 20 4 87 1 -60 -21 69 36 -68 43 77 0
77 -84 38 -82 -76 -78 81 -42 -2 35 7 -64 47 29 -71 44 -5 -11 -24 8 -37 -58 28 -51 19 -63 -56 -74 -20 -26 -46 -61 69 -85 10 -52 89 -53 -1 -18 3 -48 62 -60 25 90 -79 -30 40 -54 72 -73 -32 -75 59 0
-15 -60 -74 79 5 -44 39 13 89 66 -1 88 30 -85 87 -86 82 -8 26 -54 20 7 -24 83 -9 32 -57 -58 22 -67 12 -77 -35 63 70 18 90 40 -10 27 -64 73 6 -25 -17 -36 -14 -52 -23 4 11 38 -41 -80 -75 0
71 -11 33 35 83 69 27 -67 -1 24 -4 -16 14 74 -49 78 70 -6 -60 32 36 -8 -50 7 -58 -42 17 -40 57 -19 -55 22 34 66 -47 23 -85 5 81 76 21 -20 -44 28 -38 -65 -45 52 -13 -54 -86 -46 75 2 89 0
31 -22 -10 63 34 -39 54 12 79 -42 65 53 28 51 -3 -70 -32 38 58 -27 -59 78 19 -26 24 -33 1 7 83 -6 85 -25 -46 -50 13 -84 60 62 -40 -11 -80 35 -86 -75 -67 47 5 23 21 -49 -68 45 73 37 41 0
-65 -15 -53 3 -24 -28 68 77 -7 9 2 83 60 10 21 86 27 -78 -1 -85 37 45 -36 -81 19 -41 -46 5 -20 8 59 30 -63 22 -70 -66 -80 17 12 14 79 64 39 -75 57 -40 44 74 -43 35 -73 32 31 -52 -51 0
42 -6 37 72 -18 -64 15 -51 5 10 -50 69 -52 -49 24 89 60 76 -13 -21 -84 -38 14 87 62 -29 82 57 83 1 30 71 20 -44 -34 -80 66 -2 59 75 -3 -55 -81 -61 77 22 -56 -45 25 -47 -85 79 67 68 -16 0
-65 31 -1 -10 -66 -64 23 -24 -4 -62 26 74 38 -56 -32 81 -2 -19 68 -89 16 -85 -47 -57 -45 -71 -46 41 75 11 20 -7 54 76 28 37 77 -15 55 -39 -58 3 51 -34 44 83 -21 67 84 -35 36 -78 42 -40 43 0
-76 -22 -19 60 34 -24 -8 -45 -70 -53 -78 68 -58 59 49 26 -51 -80 38 -15 -86 16 -87 -63 -11 12 -17 90 5 72 -43 -71 21 -36 -4 -88 -10 89 -50 20 61 -30 -6 48 13 -77 7 -27 -29 23 18 -3 85 55 -31 0
-82 -20 -55 -36 14 86 -5 34 -74 16 22 8 85 44 18 -19 26 -15 -49 25 10 54 -2 -24 -59 -1 -47 -4 -38 35 83 75 -12 81 31 87 89 79 51 9 70 -41 -42 69 -57 -43 -64 -67 39 52 -40 65 -3 13 -17 0
-89 76 39 -49 -5 67 -58 -40 -34 11 -22 43 38 -29 90 61 35 15 -60 -59 -80 51 -4 83 24 56 -20 6 -74 32 84 78 -9 86 33 -16 13 85 30 23 70 12 7 8 -79 88 -27 -81 -42 25 87 -37 55 77 65 0
-4 38 34 65 -14 16 82 -55 -21 -61 -22 -78 28 9 1 -69 68 84 -20 -12 64 -58 19 -63 -87 76 -26 -74 -90 52 29 -39 -25 -42 -3 44 -33 2 51 6 60 -83 32 81 -13 73 71 -86 46 -36 -27 89 -41 -40 80 0
-49 50 -6 -73 66 33 -42 26 -8 12 -46 5 -7 9 19 -88 27 81 74 -57 -13 -44 29 -59 63 31 3 18 -72 76 35 -20 69 40 28 -87 71 54 86 -45 -38 1 37 -24 41 -11 10 -21 79 62 -84 58 -34 -67 47 0
18 90 29 72 -62 26 60 9 -79 75 -31 -2 45 -35 -43 -56 -54 74 -49 -86 -48 17 78 -82 59 12 80 85 20 -66 53 7 70 -89 -73 39 16 -46 -33 24 23 -1 -84 -67 25 4 36 19 -52 55 -83 -40 -61 81 -68 0
60 -19 -90 -36 -54 55 -43 -56 64 -41 -14 65 -53 -59 -48 -27 80 6 -86 66 -21 12 -42 -88 -22 -9 15 68 52 72 58 -69 32 -76 -79 -39 44 16 -20 85 67 35 30 -82 -3 46 -37 -4 -70 -31 -17 23 26 -45 34 0
37 67 18 74 -83 -58 20 -76 63 -72 52 -75 16 81 -1 -90 89 29 49 -12 -68 -30 -62 21 -2 88 73 42 -43 19 -13 25 61 5 -71 33 -3 -87 15 -23 31 -47 84 -35 -82 -8 66 22 54 70 -46 78 -40 -28 -10 0
1 49 -51 2 -5 -24 -17 55 68 -30 -4 78 -74 -12 -25 -20 -21 63 -6 52 -10 54 -53 -79 -70 85 -44 -82 80 -19 65 -16 -77 -86 72 39 -8 9 34 -32 -48 26 -42 90 -56 -29 -43 23 89 45 -58 41 -28 -36 -75 0
53 -20 -76 61 27 38 -50 -8 -10 -44 29 71 80 9 55 68 4 -64 62 24 2 74 -66 3 -58 13 39 60 -79 -25 -65 54 -73 -6 -5 -47 -14 12 -18 -67 -82 17 52 -88 -69 46 11 -72 84 23 -90 56 43 -41 -81 0
69 -63 -71 -40 -14 30 -16 -73 -61 66 -4 -43 -58 75 -45 65 -46 19 32 -67 -41 -24 -11 28 20 74 -49 53 60 72 -57 47 -90 -7 64 -27 -88 -17 -50 -22 21 -89 -5 78 -2 86 51 79 76 -18 -42 -36 85 37 -35 0
-35 -23 74 -49 14 31 27 15 -3 8 -1 78 -56 -4 87 64 -85 -63 -29 71 -75 -11 -2 65 -68 19 -61 -70 -44 43 -40 84 60 53 51 12 66 -90 50 -39 67 -48 -72 -33 -57 77 -24 54 -81 -80 -10 -6 -41 -37 -62 0
81 -55 -87 79 -10 19 -8 67 -30 21 77 35 27 52 72 6 -46 53 -84 71 61 -32 -51 -13 -34 -62 29 -25 63 -74 17 66 86 48 -69 -68 -43 90 -3 41 31 59 44 76 -26 36 88 -57 54 -1 78 83 73 89 22 0
61 -62 15 -7 79 -64 -31 -56 -16 68 37 -52 -77 44 -12 -54 26 -45 75 -84 -41 -34 -5 -48 -58 87 -14 80 38 -73 27 11 -19 -89 -23 39 -86 76 8 -55 -10 25 40 -46 70 22 -1 78 -13 72 -85 60 -43 71 24 0
68 -36 51 -58 -20 43 1 29 -83 -49 48 -21 16 -50 -44 15 -7 11 -26 -81 -35 -34 64 -84 65 -73 -72 -17 -25 -71 -37 87 70 18 -74 -86 4 39 -52 59 -88 41 32 47 -6 54 2 33 -63 89 -60 27 -56 -67 -55 0
87 -89 35 -50 75 60 -24 -1 -40 -47 -8 72 19 -49 -32 6 65 -62 5 14 42 -26 53 -20 81 -10 21 -58 -57 51 39 -63 -69 85 61 -29 13 -74 -83 -70 -22 18 -36 43 80 -41 -11 86 -34 -77 -68 -79 -45 -73 -17 0
13 -15 -58 -4 76 77 -73 -80 33 74 -44 23 -87 3 82 -9 28 -8 10 43 39 -53 72 50 75 90 85 37 -46 -83 -12 -65 -69 -45 5 29 -24 35 57 -27 18 -16 -11 -88 48 -56 60 -51 -89 61 -38 1 -32 -7 67 0
5 -26 12 -21 31 -63 -3 -69 42 22 -33 -34 40 45 -86 -24 -81 56 80 85 -2 -57 -71 -64 83 89 -25 -30 -6 36 -8 -19 47 50 -70 88 41 -59 67 -87 -65 68 -90 -77 -4 -58 -74 46 -14 17 60 -29 -79 11 16 0
60 -57 21 -20 42 29 -52 19 54 -7 37 47 -84 -72 65 22 56 11 70 18 -28 6 -49 -74 -26 9 -16 44 85 2 45 32 -23 -63 -58 88 -76 17 78 -67 46 69 -77 -81 -75 53 -27 38 -30 -68 -79 -4 35 41 -89 0
33 -44 87 -82 -12 -68 -81 15 -1 -54 51 24 28 13 38 -78 80 -85 -27 -3 43 22 -86 9 74 46 -75 -23 31 40 61 -71 -34 11 -88 -48 90 -32 42 20 -30 7 36 4 -50 -76 -49 -60 -26 10 -39 16 56 35 73 0
-35 -66 -20 -23 53 -28 -15 4 -42 51 -81 -32 78 -68 -40 -46 7 79 -18 27 -5 55 54 -45 1 -71 -17 -57 -50 88 41 -30 33 60 -13 -80 84 -9 -39 -59 -25 -21 69 -43 36 26 -12 47 19 -3 58 -24 14 -49 10 0
50 25 -21 35 -54 -90 47 36 85 24 88 12 -16 52 -18 51 68 -8 -80 -40 -77 33 10 75 -4 -31 22 -30 58 -62 -69 70 44 -66 72 9 -83 34 -71 76 -37 45 79 84 7 2 -3 -26 15 55 6 32 64 61 63 0
33 -68 66 79 -69 25 4 -38 -40 62 64 -1 73 -90 76 24 -53 -44 48 63 -28 -56 -23 -45 -54 -32 36 -15 39 87 -82 30 -70 35 -88 -10 31 41 -61 52 47 77 50 8 -84 -86 -85 22 19 -6 -43 -34 83 12 26 0
54 -21 -31 -56 84 -37 -39 65 -85 -55 40 -14 61 23 -33 6 -35 -15 -17 -36 3 -83 9 -53 28 44 48 -19 30 -43 76 86 22 45 -8 20 -57 11 42 -64 67 87 47 77 -66 -52 1 34 25 -81 -58 -74 -5 63 68 0
-14 -41 80 -52 23 -36 -16 -58 9 7 20 53 -62 55 -33 -69 -27 59 -56 28 21 34 83 -63 -49 42 45 -12 -85 64 -39 79 -51 88 10 -60 46 54 -15 -6 72 70 -4 -24 68 -89 -25 19 22 -32 -47 -77 30 66 -86 0
-35 -18 -87 71 85 -90 7 72 -24 -26 2 -80 13 36 -77 65 -70 -73 69 89 46 41 -27 21 -5 16 10 -15 52 -67 -33 45 76 44 -59 -3 42 -4 38 39 54 -61 81 -83 -60 -9 31 47 62 17 28 75 -23 -79 30 0
-44 -7 -62 45 88 32 -71 -81 -59 11 -52 -4 -15 -48 -37 -46 86 26 -41 56 -17 47 -55 12 -31 22 -6 -9 3 -85 -58 -68 -73 64 23 -84 21 -49 -69 -1 -63 -18 30 10 -51 -34 -87 -50 -40 60 -75 28 13 36 14 0
16 54 35 65 50 18 85 36 66 13 63 -48 -29 26 58 55 -38 -67 57 52 -17 72 -47 71 69 -46 9 -12 2 -1 -14 -74 76 -32 -5 28 -53 59 56 -27 40 -89 -22 60 73 -88 83 41 -81 -20 -15 -51 -45 64 3 0
83 -77 -18 42 10 -13 81 -80 67 -62 58 48 47 -5 57 25 73 46 30 -14 -43 -8 -65 32 76 84 -37 -52 16 -21 -19 86 -85 38 36 56 -4 -26 15 -75 -17 -60 72 87 29 39 7 82 63 20 41 78 2 66 -44 0
-21 -51 -16 47 -68 53 -33 -13 -29 -42 67 -39 30 -20 -88 -85 61 81 12 -25 -14 -9 43 -69 -63 31 -18 -45 -7 76 -64 80 -83 -28 32 -56 74 84 -24 -59 -36 -1 6 40 23 -73 -65 17 48 38 -35 60 -62 -34 -4 0
-15 -83 88 -38 8 56 89 70 78 -11 -34 49 -81 31 65 -50 -43 -30 -33 -42 37 84 -86 -80 -35 53 -46 2 -29 3 57 -67 -6 40 -9 -51 -73 -18 44 -32 13 -74 -66 41 -62 36 87 -45 -7 76 -39 58 23 -48 -68 0
-90 -10 -69 53 6 -21 -64 84 77 34 58 -31 -48 -63 75 -88 -42 37 2 49 -74 38 -4 16 46 14 73 -57 7 3 51 54 15 -50 89 86 44 67 -47 5 -70 -52 -8 -32 22 -12 -66 18 39 -40 -17 23 -11 60 56 0
-12 33 -1 58 -65 14 -21 2 -48 -57 87 22 74 -23 -38 50 75 -81 -17 -43 39 60 -46 -88 69 -41 -55 53 -20 26 72 -71 25 6 76 64 54 -86 -4 80 -51 40 -10 -84 -11 -8 -19 -49 37 34 -44 45 83 -78 27 0
82 -4 -44 -63 -57 -1 36 -17 23 11 14 -75 -86 -21 60 -6 56 -78 -43 81 26 25 51 -77 47 28 76 -31 10 -5 -71 -58 9 68 67 -2 20 87 -12 19 62 -46 41 -30 64 33 79 -40 -61 -83 -32 -80 65 -90 3 0
-13 -84 -34 62 26 2 -28 68 -12 10 -50 45 71 46 58 73 -88 86 -90 17 -27 -6 -43 -14 -76 74 56 -51 67 48 -7 29 -18 66 42 -33 79 -20 64 -87 63 11 57 19 -16 49 30 89 -32 -85 -3 35 39 -5 8 0
-53 -34 27 -11 -64 -61 -36 -57 63 -24 -60 -75 85 -26 62 -14 -15 -79 66 47 -49 -4 33 86 40 39 45 -8 -54 80 -55 56 -51 9 -22 -10 70 52 65 -67 -32 -43 -5 77 69 17 59 68 -13 -38 -18 3 -30 58 35 0
67 27 -60 -29 -18 -4 -78 -2 14 -84 73 -16 9 -56 -83 -70 62 -63 -33 22 -82 80 -42 86 59 -49 -81 90 35 41 54 -48 -69 -66 8 30 19 -15 -1 39 -20 -46 -26 -17 10 -7 -89 45 85 61 -58 44 34 -72 79 0
-48 -50 17 54 -5 55 -34 68 -12 56 42 28 73 29 -81 -88 3 -64 10 -6 -71 58 35 57 -21 30 -33 -79 -70 -13 -53 -76 23 -14 49 -4 -44 18 19 41 -25 7 16 8 -65 -80 -24 -9 43 87 27 15 20 31 -66 0
70 -34 7 82 76 -80 -9 45 -17 -36 28 29 -71 8 -3 63 57 -13 -75 -47 -56 65 81 -16 19 11 66 12 86 2 15 21 -89 -41 33 -90 -51 61 79 -74 -55 78 69 67 -35 31 30 22 18 88 23 37 60 -24 -39 0
8 83 -66 76 29 3 34 55 17 56 -62 -30 51 74 -70 -81 65 -6 -15 -28 -5 -89 -1 -10 42 -16 -84 4 -11 35 50 -36 -69 -26 -49 13 -72 38 21 20 -33 -18 -43 90 -57 61 86 -40 -80 59 67 -68 -73 -88 -71 0
-59 -90 5 -49 19 16 89 1 61 33 -60 6 -85 70 31 -21 18 78 -47 52 -34 -24 83 -71 -54 26 69 -82 15 37 11 62 80 86 -55 -42 -87 -3 -25 -28 -72 14 -79 -17 -77 -67 29 30 -36 -45 73 40 -74 -22 20 0
7 -51 70 -90 89 67 -46 2 58 -39 -60 -21 48 -41 25 -50 -1 -42 -15 5 40 -4 -56 22 -30 33 13 -20 -74 88 8 78 -23 77 53 44 54 -36 -79 -73 -82 59 -29 -49 -75 24 12 14 17 27 85 47 71 84 -31 0
71 86 -24 -90 41 12 83 -2 52 27 11 -45 -54 -17 47 -16 -89 -30 -18 31 88 21 -59 78 29 -79 -28 -5 20 73 4 44 46 -51 72 36 8 -48 -22 -60 -37 49 -23 38 -81 34 -80 66 -56 40 39 -77 9 -26 -15 0
10 72 -21 -61 28 -24 65 34 -59 4 45 -20 80 -23 26 41 -5 -48 -66 1 60 -79 -9 82 -70 40 78 76 -89 -47 8 -43 12 18 42 -90 -32 -33 -58 54 38 86 69 -35 -73 -27 -22 -62 -51 71 -29 3 36 -15 -39 0
-60 69 11 -33 -81 41 76 -3 -57 -73 12 5 36 88 22 56 -43 70 -47 19 -59 15 45 -71 -78 30 -50 -23 -54 86 -38 -40 44 -6 75 -85 62 13 -84 83 -24 21 87 68 20 79 46 -31 35 -48 90 -58 -8 -17 25 0
63 -55 43 -86 68 -64 46 33 14 -42 -24 -36 72 -9 -69 -17 32 4 -15 51 -27 78 -19 37 -70 -52 60 -12 -73 40 -39 6 -16 -50 26 74 47 -59 -5 -80 -62 -1 7 58 84 41 77 57 -28 -8 13 -10 -35 -34 -22 0
87 21 74 -49 68 7 62 72 -15 81 -60 -8 -36 38 -71 -28 80 -35 17 83 5 69 34 82 -41 -11 63 90 78 -44 12 6 40 -57 -13 46 43 37 19 39 42 59 -32 25 -66 -18 56 77 -67 29 89 -23 70 51 10 0
27 -48 -14 -21 88 58 -51 -82 -87 -10 -24 52 -61 -84 -57 -71 2 3 85 70 22 -20 -28 41 -77 -81 72 42 67 -30 36 73 -47 -53 46 -54 -8 89 35 74 39 -11 -9 25 -19 13 43 -38 -40 60 -80 26 -5 68 49 0
-73 54 -9 57 -67 68 -30 -36 3 -53 -23 -83 -81 88 34 28 32 4 58 -8 78 79 18 80 -60 37 65 45 35 -38 -44 -26 -1 -51 15 11 43 76 -72 -6 49 -75 -71 82 19 17 70 40 16 -25 -85 -90 48 -14 -2 0
69 -55 -60 -87 -8 58 -57 22 3 -4 -78 45 -34 67 49 -51 -27 85 13 -66 37 76 12 -39 46 42 6 68 -54 86 73 -90 20 61 -47 -83 71 28 53 -77 5 -64 -16 65 -74 62 -31 -33 72 59 75 -81 10 -14 -70 0
23 77 61 42 32 65 53 -69 9 68 -34 -24 -50 43 -55 -52 -12 67 10 -20 -3 -70 11 -22 -41 -75 -81 64 39 45 -29 -59 -8 84 2 60 -17 27 89 18 -6 -26 -31 -19 -4 79 -78 -1 -16 -82 80 -63 -47 51 -86 0
-56 -10 87 64 55 -75 -25 -46 42 1 78 49 31 -90 2 33 53 88 34 -11 -43 83 -7 -13 66 23 -79 -45 -59 70 -9 82 3 18 62 38 -37 27 -5 -71 14 86 -81 35 -19 40 28 72 -8 -68 65 57 -41 -52 -47 0
89 74 85 -45 59 15 -77 -49 80 11 -1 56 5 -25 -48 -10 -32 -60 79 65 51 38 39 -76 -26 -75 17 64 -72 44 -43 53 -19 2 90 71 36 33 -87 8 -46 42 -58 -86 6 83 12 69 -41 -18 14 -40 20 -4 -68 0
-21 27 -33 -29 86 -1 73 51 -12 -5 -36 90 46 52 43 -2 -54 83 -58 -53 -72 65 -13 -14 18 30 79 28 -88 -47 -74 -81 -24 70 -78 56 -77 -6 42 71 34 -31 69 45 38 -20 9 35 -44 -59 48 -57 7 -17 61 0
13 -44 -5 7 -21 47 -28 23 78 -88 -33 -6 52 66 -79 -74 -27 85 25 22 1 -64 51 9 50 -26 -67 -89 -65 40 -30 -86 -3 73 -87 57 -81 8 -19 -24 -61 -82 -90 -18 83 -11 -84 2 34 58 80 -35 -16 -76 -54 0
-40 56 -51 45 -8 60 85 13 -29 47 -14 -35 -86 -54 -79 -76 65 -70 -57 33 -24 17 88 -38 -82 50 -58 -61 72 -59 20 -1 27 -75 77 -84 -37 -48 -62 15 71 42 -53 -49 41 -90 12 -67 19 -66 -83 -3 -74 44 -11 0
-9 -53 -40 88 76 -2 -72 -3 -71 -17 -28 -83 -11 -4 -51 57 31 -64 63 55 46 -29 -80 58 52 84 62 -81 79 13 75 -86 5 -23 -33 6 1 18 -20 -87 -26 -10 56 47 39 -27 69 89 7 -25 -19 -60 -32 -73 -41 0
-41 -66 -78 -88 72 27 -53 -18 69 -28 5 33 -68 52 -3 55 -1 11 38 -7 -13 -12 -83 47 -25 50 -39 80 -36 51 59 77 61 89 -81 -74 -30 -46 -90 14 85 73 20 -56 35 54 -6 58 40 84 -15 -49 -31 24 -65 0
-87 -19 -80 50 49 38 -31 45 47 -4 52 79 28 -57 55 43 48 -61 -42 86 -7 71 74 -40 -39 -54 -5 65 46 -68 -83 85 -33 10 -32 -77 88 -21 -26 -25 -89 -60 -81 -8 -59 51 20 -29 17 53 -30 -41 -63 -18 64 0
37 -74 -15 -59 10 -30 -20 32 -58 -60 -90 -51 76 39 -17 81 -24 -66 -26 -28 -86 -80 43 41 84 -6 -2 40 -46 -29 -87 -3 11 63 13 73 -53 45 -62 25 72 48 54 89 33 31 -85 65 -21 -69 -22 -7 -56 16 -27 0
-42 85 -18 70 77 58 26 -87 61 -25 -86 -8 12 -2 -37 69 -28 -88 -66 -15 22 63 -1 -29 73 -43 -20 -89 83 -62 52 -44 33 78 -49 54 67 -84 55 -82 -27 9 -35 -30 -19 34 -5 -45 79 -56 -90 -23 -75 7 46 0
-65 47 -21 -87 19 -9 31 71 39 -49 -84 18 20 22 8 -56 48 -80 -38 46 69 -81 -17 28 -37 -60 -64 27 62 11 -59 -10 -89 74 4 -1 57 30 85 -90 -51 -52 -88 44 -34 -26 -54 2 -55 -72 76 29 -35 -73 15 0
-62 70 12 8 -74 68 -77 -26 15 -58 16 9 -35 -1 -30 -52 45 67 -72 -46 84 80 25 48 -57 -71 -61 36 -41 29 -49 79 10 -23 53 37 87 -81 17 -89 -19 27 34 44 73 69 59 38 -42 -14 66 76 -56 28 -54 0
-75 -44 62 -33 88 -72 82 20 -76 27 -69 -28 -71 -2 -87 -31 49 90 84 -47 45 -30 -65 57 70 -43 -40 32 -11 16 -29 -48 -24 80 -38 -39 -61 7 41 -25 -79 9 64 -51 -10 3 -19 55 -4 8 6 -35 -1 23 -26 0
-13 -69 -85 -63 -89 -75 12 -54 -50 68 -41 -53 78 64 56 -88 -29 17 52 44 -37 -67 -1 -24 38 4 -81 -82 59 -40 -30 -26 -22 15 6 -46 60 19 -8 -51 83 80 49 -23 -25 72 34 20 9 -48 47 -65 86 76 77 0
-82 6 -71 49 -68 57 11 37 -88 -30 -18 -46 55 90 -78 -47 84 10 -67 22 41 -54 26 83 5 20 56 -80 -32 -45 -31 -86 -40 -42 -3 12 -81 -19 -63 -17 -9 -50 -60 65 -44 -70 28 -14 -64 21 72 38 29 -27 -53 0
39 -52 -4 50 7 -44 -24 45 18 -46 -42 58 56 -15 66 76 79 74 -55 30 -81 32 10 20 84 64 72 -36 -77 85 12 -63 75 -68 28 -43 -90 -65 33 51 -16 29 61 71 14 -60 -49 -3 -13 -17 59 41 -27 62 35 0
-35 3 -22 -30 -25 75 -89 41 60 2 -21 -39 19 -82 51 -36 -87 -37 -34 62 85 78 -74 -12 -58 -83 5 -27 -7 -26 -20 1 -90 -31 80 57 -8 -52 -54 88 53 55 -6 -77 14 73 72 -18 -13 -86 50 -84 -70 46 -29 0
-66 -49 18 -82 -17 -4 34 -1 -10 -35 -19 57 -8 87 -67 64 -72 -22 -45 53 76 38 -21 -23 13 -24 -83 -7 -12 -48 62 -5 -2 52 -46 9 14 40 3 90 51 30 -16 -44 33 54 31 73 59 89 84 -77 11 -47 -65 0
68 -4 -33 -43 -59 3 82 -5 -21 27 -88 50 54 89 19 67 72 14 -48 71 49 -17 -18 -39 38 47 79 -62 -40 -25 35 -61 9 84 13 -81 -28 66 -42 -36 -74 6 8 30 90 80 29 22 65 55 -78 63 51 52 46 0
-40 -51 31 -88 -90 53 -50 -66 29 -1 11 -82 -7 37 13 4 -25 81 -18 73 60 42 15 74 65 -52 -16 -46 68 -71 -22 75 72 -3 -17 38 56 -54 -27 64 -9 41 -34 78 -45 47 49 -79 76 19 61 48 -67 -59 -10 0
72 -37 8 -14 -20 89 -62 17 -88 -10 -56 45 -18 -51 -61 70 -1 -78 -23 86 90 4 76 -13 -19 -21 -82 15 36 -71 40 85 -48 -64 63 16 26 -27 -57 68 65 -79 32 -80 44 -9 -67 -22 50 -75 31 54 -87 -60 74 0
-66 -53 -7 70 64 84 -10 83 46 -9 -22 78 -86 42 90 -25 -48 -36 -50 61 31 16 85 -82 89 63 44 -24 -3 -65 19 34 -23 -32 -1 76 -45 -55 71 -6 -27 38 -47 -73 39 -11 41 26 -28 87 -57 4 -62 43 81 0
-63 80 -64 60 -77 46 6 90 -24 50 -73 -70 -52 -87 -59 -30 -69 -61 2 -40 78 -51 -12 21 -22 7 -9 -31 81 -23 -33 -10 -47 57 41 17 14 -8 -72 29 11 -35 -65 -43 45 -19 42 -67 -27 -56 38 -5 -84 89 58 0
63 -70 -43 90 64 39 -41 28 79 -8 -10 -18 -45 -6 48 56 -77 -87 -49 -60 75 25 38 -69 1 -61 33 42 -11 -16 -81 -21 66 -72 65 -52 74 -86 -3 27 -51 89 78 20 40 -7 4 34 -24 -82 -62 -85 55 -53 12 0
78 73 -22 -80 -39 9 -7 -15 -69 54 56 -35 4 43 72 -82 -84 83 17 59 -50 88 -16 -66 12 45 -10 90 -3 -2 6 -21 -47 41 33 5 60 -58 37 -89 57 24 -76 26 -31 18 -75 -11 38 87 44 -77 -23 32 19 0
-63 27 37 21 -5 30 51 16 66 -74 65 77 17 69 7 8 -44 86 -56 73 -47 55 46 -59 25 9 14 72 22 -43 -11 32 -29 -80 70 -24 -89 18 -75 13 41 -58 -39 19 -33 50 31 -48 23 54 82 78 88 1 60 0
-73 76 -69 -55 77 -18 -11 -33 -83 23 -50 32 -57 17 -12 71 79 -51 -28 89 -30 62 48 -88 75 -25 -85 -59 22 -9 44 16 -2 -82 -84 -68 -67 -52 -5 -1 37 -49 39 41 -66 24 61 -38 -45 70 74 -72 -42 27 -20 0
-1 50 38 -74 16 4 -39 -87 -40 68 -61 -69 -70 27 -84 23 33 -29 45 6 90 -54 62 3 35 -52 -36 89 44 -28 -55 47 85 -14 78 -10 32 43 80 75 -41 20 34 -77 51 -18 -31 79 -15 -26 -49 71 12 -58 9 0
56 19 62 -9 72 83 -58 28 -68 -47 15 -33 53 25 71 42 -7 -70 79 64 74 -76 46 -84 6 -8 39 38 67 -45 27 40 -87 51 52 -2 -24 75 1 -10 22 90 -55 81 65 -12 86 -36 29 31 21 50 -32 41 -18 0
-32 21 45 -11 -62 -38 -44 52 -7 70 -75 30 -76 46 60 61 -87 -67 42 54 -20 8 24 63 -2 47 79 -86 48 4 -69 -88 23 -49 -1 58 50 12 19 59 15 -66 68 -90 64 17 -71 73 -57 -13 -28 -82 25 -5 -36 0
44 66 65 -67 7 -30 -1 83 -11 58 32 52 61 -49 28 -18 -35 69 80 -81 -3 22 72 -10 75 88 17 -79 31 -23 36 54 46 -41 -51 82 -9 14 -8 34 77 -64 -70 6 -48 -57 43 -74 -63 2 -56 -60 42 -29 89 0
83 -35 -5 82 -12 2 -84 65 42 -81 90 31 37 8 -28 19 7 -45 -30 -46 17 48 4 -41 27 60 -67 62 -80 43 -68 -49 -79 -16 -21 26 -50 -36 72 33 14 76 55 47 3 58 -63 44 11 -23 9 25 -10 53 -88 0
-10 17 -89 -79 -43 -37 -52 14 84 63 36 3 -29 -50 35 8 -12 -11 -13 31 -80 -21 -51 -49 39 -44 16 -87 5 19 40 38 -25 66 77 -48 83 -85 -62 45 64 18 -27 42 81 -53 -57 67 4 -15 -74 32 -86 -76 6 0
-13 -7 41 -48 -50 -59 -85 -58 -27 -49 65 57 43 -71 31 46 15 33 -4 80 5 -81 -74 52 -37 14 -64 -66 -90 55 -30 35 6 44 -75 61 24 40 60 10 -76 -32 -22 69 -25 11 -28 86 20 88 19 -67 -89 -47 23 0
62 -17 -16 -11 42 -22 -28 -5 -59 -66 20 -63 39 -38 -40 -60 68 80 -75 48 56 41 9 81 19 69 2 15 -67 4 -53 33 -10 57 65 27 -8 64 -46 45 -35 87 18 -79 -34 -73 -26 -84 -50 -70 -49 61 71 52 -58 0
-38 -32 76 -7 9 -36 53 -52 54 -46 -85 -86 -59 4 74 24 -80 82 88 3 -72 -39 23 -50 56 89 -61 -6 12 84 62 -90 60 -16 -83 26 29 31 -35 13 -27 -70 -71 -14 -1 41 -44 45 55 -48 20 -5 -49 -18 -40 0
56 75 -46 -50 -63 5 -72 -76 9 57 20 -43 1 21 -81 -82 -13 79 -44 -88 77 -67 18 59 -47 25 80 71 -26 70 -17 85 -4 11 32 -15 -30 -3 2 -48 -29 -10 84 -65 34 73 -51 60 -54 36 64 -53 -23 -28 -78 0
31 29 -65 -56 -57 73 -3 -15 -54 69 67 43 12 47 51 88 -4 76 -72 -13 -59 40 11 1 -22 -44 -5 -84 50 -16 41 62 10 -30 -58 48 -25 80 -83 36 27 85 -63 52 -86 70 -81 -17 -82 7 -20 35 -90 -78 28 0
-43 -89 77 -14 -67 64 -45 -37 -30 -3 -31 85 -15 -63 -55 -52 -27 11 -26 13 19 -60 -49 84 -12 72 -78 -39 -23 -48 -20 38 35 -75 25 76 -8 42 87 73 -41 -6 4 22 32 7 56 -9 -36 -29 -65 -34 24 10 90 0
37 -35 11 -74 42 7 -45 51 -19 -67 -23 90 -80 -25 4 49 -59 20 43 81 56 84 63 29 27 54 -31 39 -6 -78 28 73 16 2 -26 -52 40 36 -33 58 -34 86 -8 -65 -30 53 72 -71 -62 60 -83 -15 -85 -46 18 0
-50 -71 26 76 -69 32 77 -84 -39 52 7 54 67 29 6 55 -51 -72 35 -73 86 -42 -33 -56 41 89 -44 78 9 -46 -43 -59 -38 13 27 -79 -63 -15 68 -53 65 -45 58 18 -40 57 47 -34 -28 -75 -21 -62 80 -83 -61 0
-65 -32 -38 -10 -4 67 -23 -25 -14 -59 -74 -20 -57 44 -80 87 -58 -68 -73 41 12 -31 40 26 53 3 -86 -77 81 2 -34 -75 -51 7 43 -27 49 5 -63 -15 -9 60 55 -72 11 -8 -50 79 89 -71 61 -30 56 16 -17 0
18 -81 11 42 29 -45 85 19 -3 84 -75 35 22 -46 59 -68 36 82 15 -37 38 27 -21 16 -79 74 -12 -31 55 67 -70 -8 -7 -56 26 -64 -86 -80 10 -32 -23 20 61 30 73 -51 24 62 4 78 -66 72 63 -53 44 0
12 1 -42 3 35 46 -52 50 -31 79 -21 60 48 58 59 -41 29 -90 5 39 20 71 49 -44 83 -76 -25 33 -17 26 22 -23 32 -10 -19 -7 -72 11 82 -56 -37 85 28 -86 -75 -30 -65 57 45 -84 61 -78 2 -55 -27 0
31 50 72 40 56 -22 90 -23 -2 -39 -37 -19 54 -74 4 -44 57 -87 -21 -18 42 63 -71 16 7 -53 -47 81 -10 -30 48 -76 -26 34 66 -6 15 12 52 59 24 73 -84 86 64 -17 8 11 -70 -35 -27 49 20 -68 88 0
36 84 30 -75 -57 -2 -60 88 -80 81 -7 -38 10 9 50 18 13 3 79 12 6 -82 -47 77 46 61 4 -20 -1 -34 49 -54 58 -51 -45 21 89 52 -41 90 -59 32 22 23 -37 -33 16 -29 -8 -73 -24 -67 -62 -78 -76 0
66 -82 90 -74 -33 -70 -68 -85 -31 -87 23 64 14 -76 -57 47 -60 54 52 -41 63 43 -5 -88 -61 1 40 56 -44 36 11 62 39 -28 -4 -18 -81 67 -80 8 -73 69 -26 -83 38 59 3 71 78 -84 86 -29 79 45 22 0
40 48 -65 57 -18 -26 -12 90 -59 36 -4 75 -68 3 -10 -74 -34 64 -81 -63 -20 -56 -45 42 -61 49 -82 9 58 84 -8 55 71 22 -69 -62 -89 -80 54 -6 -7 -21 46 -51 -31 14 5 73 -25 -17 39 19 32 29 -53 0
44 -3 -86 -80 -72 52 -47 -63 18 9 74 -24 -62 -26 -82 -39 -71 -65 -78 81 41 -20 -14 -30 -22 58 79 -21 19 -60 -25 34 13 -76 23 36 -16 55 -15 -67 38 -4 49 -33 84 1 -45 -10 46 29 -61 85 -53 31 54 0
89 -67 -49 28 54 -19 -53 58 -51 62 61 11 70 30 -39 -26 38 -29 -48 -12 86 5 -16 34 -60 -20 31 -45 -25 -42 63 -37 44 -69 80 81 -35 87 71 50 90 -84 6 -36 7 59 13 -66 -77 73 -72 68 64 10 -21 0
81 45 35 -8 -37 51 68 -83 -25 39 78 -24 -55 57 -30 67 32 -21 -64 -61 -63 9 31 47 14 26 29 -59 -15 88 -23 54 58 -84 53 -80 44 -71 -90 77 66 -73 -76 22 5 -18 -12 -62 -27 46 79 -41 -34 40 17 0
-65 41 -28 48 -78 -40 -7 74 42 -10 -19 -59 -68 20 -45 -22 23 -32 -79 87 -67 -37 -5 47 -6 -70 60 -55 36 -54 -61 -16 -72 -14 85 58 -30 -90 82 71 75 -52 39 -21 -25 15 53 83 -66 -33 -31 11 -86 51 -35 0
44 -13 -19 -20 -55 45 84 32 63 -27 -7 90 -6 -35 -67 77 24 28 -81 78 -61 -18 72 37 -75 -41 49 65 -57 -89 -88 8 42 58 -34 48 52 -40 47 -31 79 68 29 50 -1 16 -86 87 -43 10 -60 -59 3 82 -30 0
-1 9 -26 -82 -43 -33 35 -86 -49 56 66 -42 7 -19 14 70 15 -52 62 -10 -85 23 32 -57 59 -71 -13 17 4 28 -29 77 -54 72 45 -87 40 16 76 8 -63 5 38 -79 -6 55 69 -11 67 -65 -36 -48 22 -24 90 0
-3 -28 73 71 -17 -27 -75 -58 72 65 -76 15 20 63 4 84 -67 -8 38 -16 -60 -37 -5 -50 51 39 -68 -59 -34 48 -74 -25 -44 -82 13 -6 26 7 -64 24 35 30 49 -81 -79 -23 36 89 -45 87 31 -21 -85 83 43 0
-64 -65 32 -9 84 -17 -68 -44 -60 -19 -81 -48 27 87 -57 85 -11 -28 -51 -61 -42 54 50 46 4 86 16 -23 31 -1 -35 53 -12 79 38 -88 -76 -21 -52 34 -6 82 -90 20 15 -41 -70 71 37 -30 -56 24 -89 62 47 0
82 -62 -59 -24 18 68 64 -61 50 86 19 48 78 54 14 83 -53 89 -73 1 85 12 8 76 -38 -23 -70 46 66 -2 51 28 -4 27 -69 15 56 42 -67 -21 -29 -74 13 84 75 77 -34 -7 49 31 -81 -5 60 -11 3 0
-80 -65 55 14 -3 -11 39 60 40 -59 -25 -37 -15 -74 -90 53 -18 -87 -68 -21 81 17 -48 -13 -70 -36 73 -88 -64 86 85 -27 24 4 -28 -77 72 -57 -6 -54 31 69 89 49 67 -78 -33 2 -16 42 -63 44 -8 -1 -46 0
25 74 -18 1 -34 23 -29 86 57 9 -15 -79 64 -13 -39 55 -2 65 -75 35 -33 14 -63 51 76 44 -52 -21 -50 4 -12 56 -42 10 85 87 -27 -7 -8 -32 84 -43 -28 -47 -49 20 73 -61 17 77 89 40 -6 81 -38 0
68 32 1 34 71 51 14 -9 46 -18 85 -59 -33 4 77 45 -26 -43 65 -19 16 -5 -67 8 62 21 20 -66 22 39 12 -52 56 -74 -27 3 73 -88 38 -49 -81 -6 63 -80 42 -44 -78 -23 13 17 82 -41 -47 -89 -48 0
-23 -6 51 -56 -47 -60 -27 65 -66 37 21 75 74 -41 3 -12 -82 -39 -43 -59 67 89 81 -34 -2 64 -69 -17 -1 53 40 71 31 72 49 -85 42 62 -24 -33 -79 54 -4 30 87 -50 10 -7 73 -45 -28 -78 8 77 -25 0
-57 -33 -5 -8 74 17 -73 -43 -46 -70 50 -39 -69 3 -77 30 44 86 63 -20 48 -31 -89 -66 -82 -84 75 58 -34 -81 71 47 53 -61 32 35 68 4 87 10 -14 7 -9 64 -76 -41 -36 -88 1 54 -80 24 -60 21 56 0
-71 90 32 87 -58 -79 -69 52 -59 -22 89 73 53 3 -57 -77 -46 -38 47 -44 -43 56 -75 -4 29 76 39 84 -13 12 -60 -23 30 -85 -54 25 -27 -1 35 64 74 65 72 -83 67 49 -66 61 -31 -15 -18 70 -86 11 28 0
-76 -20 -86 64 -88 11 -37 -56 -87 -15 -83 -21 3 -45 -75 -54 -85 23 -60 27 42 33 -31 -57 14 -46 49 51 -22 -74 -38 17 -72 1 84 58 -24 40 41 7 -32 -16 61 -81 71 -34 26 -47 13 -8 43 30 67 -59 -12 0
79 -2 86 42 34 -43 -39 -54 87 -11 -69 15 -44 73 25 74 -59 -81 29 28 7 -35 45 4 -17 30 -31 78 19 -33 -8 9 -1 37 38 -53 3 24 -26 -52 -36 -10 -72 64 76 89 -47 -84 5 61 -41 -68 65 75 20 0
-90 -66 34 71 -22 -27 -32 -9 45 78 36 -33 59 -21 -63 6 -37 -65 -41 -28 -13 30 87 25 44 31 -77 -39 16 -14 -12 18 89 -2 -7 56 -61 -74 23 46 81 17 8 -20 -10 47 -42 72 60 24 52 79 76 86 3 0
-16 52 -28 6 71 -50 62 2 86 -36 45 -12 -40 22 65 39 -42 -90 48 69 88 27 -21 -78 -1 -5 57 -31 -81 -83 20 32 56 13 77 -59 -38 -19 -63 15 -67 58 -61 -23 -74 -84 -49 34 -80 73 70 -68 -26 18 -85 0
76 87 41 1 -31 27 24 -18 8 69 -3 80 -44 11 2 23 30 34 -10 20 21 -84 -15 55 77 81 -37 14 -46 49 -62 -7 -63 -26 64 54 78 43 -13 -60 -79 -6 4 51 50 -28 36 -38 -75 9 17 65 59 -72 47 0
-1 5 -71 -90 74 -36 65 82 -20 55 -12 51 -85 -40 11 4 56 -6 -29 -42 -89 77 -37 43 84 -13 69 19 -86 -22 -54 -80 -57 34 10 47 25 -17 73 -68 -53 18 -2 -33 -21 35 41 -79 -62 44 15 87 38 -59 83 0
-54 87 -20 52 35 -38 -4 90 -40 81 -25 -88 66 70 -8 65 9 -23 -62 57 -12 49 19 -78 28 39 37 83 36 -48 85 46 32 -45 -1 -27 -11 15 6 -73 -22 76 89 84 55 17 3 51 18 63 24 59 82 -69 74 0
-63 74 3 43 30 52 54 16 78 -71 68 -48 -12 10 87 23 -73 13 44 -61 -38 60 34 51 20 2 -18 -40 28 -65 -89 81 82 -42 31 -83 -6 -17 -24 9 -55 7 -88 -26 21 -69 -90 -14 29 45 -47 37 -8 -49 27 0
76 77 -70 -39 45 -32 -59 43 -84 -12 30 10 75 24 71 -22 66 -21 25 -29 -89 -64 49 -65 -48 51 -16 8 83 -38 -69 -86 -42 -88 58 79 -34 -33 -37 46 -3 -6 85 5 35 36 31 17 53 -44 4 -90 -62 -9 61 0
-21 -49 84 -60 52 16 -2 -12 -76 57 47 -13 -37 -59 -80 79 81 -7 -32 30 -63 14 -38 15 -71 -27 -36 31 56 9 -11 -86 18 -42 68 -88 41 -29 -44 90 -10 -70 -23 89 -77 48 28 -54 -40 -62 -22 51 83 39 -25 0
2 69 68 48 37 87 -21 41 6 -50 20 -74 -5 55 -43 63 78 -36 -56 11 90 19 81 79 28 -1 -31 65 -70 22 -60 80 27 -34 53 -67 -77 3 -32 26 -66 62 -82 -30 -46 57 -54 45 84 -71 -7 -47 -88 83 -44 0
83 64 -63 -81 -82 30 -27 -54 -51 -43 -26 -39 60 -1 90 62 -19 -14 22 -2 -36 5 65 -77 41 -72 57 -42 -37 3 53 -8 35 -13 -16 76 -89 29 80 -34 10 -70 78 -87 46 32 4 71 20 52 59 68 75 85 -24 0
-41 -80 -83 -46 7 -88 -72 13 35 28 -47 -87 68 75 -12 -48 77 74 -26 11 -78 14 -76 32 -51 9 -15 -1 49 -19 21 -6 53 8 -90 -61 42 64 -59 57 86 54 -22 89 -36 -4 79 -10 -23 33 62 27 70 84 69 0
9 66 -16 76 -51 -47 62 -84 -28 -12 81 -7 -33 58 -79 -64 67 31 54 -42 85 -29 -83 23 22 68 57 -45 -17 36 78 -25 -24 -5 -69 40 -21 -75 -20 -71 -15 50 -4 -19 55 13 -49 -56 35 74 6 61 -80 -38 30 0
5 -6 13 43 90 18 -14 35 -41 4 -44 75 -10 -66 -42 -30 -65 -72 -7 12 38 83 -50 49 -40 57 85 80 31 86 -19 -48 -22 -87 -15 76 61 -70 -28 34 39 60 -88 -64 81 -46 -11 -3 -78 45 -47 -24 62 -1 77 0
57 -84 65 -75 45 -26 -7 -24 48 -54 71 78 -22 40 4 -13 -70 6 -56 28 80 17 66 -53 -20 -79 -85 -47 63 -10 87 41 -19 59 14 37 23 36 -27 77 -44 33 29 61 21 50 1 32 -25 -82 88 68 11 90 46 0
14 -71 -31 -24 76 -5 39 -3 40 2 54 17 60 -51 -73 68 64 63 -13 -37 -44 34 53 -48 -55 27 22 52 -57 -33 -50 -87 83 19 29 77 9 -21 8 -69 -15 89 -6 36 38 45 80 -42 18 20 -75 -16 90 41 43 0
-71 -72 -64 -52 4 57 10 -73 -19 46 -69 80 -15 5 -63 -76 17 2 36 35 55 3 -65 28 62 13 54 78 -40 -82 84 -59 -38 49 7 -41 -61 -24 -39 83 89 -58 -26 66 90 11 34 42 70 -68 -44 29 51 27 -22 0
17 -24 -86 82 54 61 -66 67 -29 -16 -20 -40 32 -18 -15 -30 3 -51 46 62 -71 -8 59 -84 -28 -7 83 57 73 -60 48 -1 -39 -9 90 -75 21 49 4 33 56 -23 -87 11 31 -68 -72 -70 43 -34 88 -58 -50 -37 -52 0
89 88 -61 -55 -38 25 64 -85 -68 59 -44 7 -87 26 -41 -71 32 -73 83 49 90 -9 48 -51 72 -43 -79 3 19 -36 54 -20 23 -76 -75 1 -10 -35 -65 70 28 -2 -37 -78 -62 -29 80 -60 -34 21 58 -22 -30 82 -74 0
-32 -15 -62 83 37 5 61 89 66 29 2 68 64 -30 34 87 11 52 90 6 -33 -38 19 3 70 85 9 -36 60 -21 -74 -57 -39 -18 -24 42 53 -45 -4 -22 -17 71 -51 -35 -88 79 12 84 58 -16 -31 44 -20 10 -46 0
71 67 -1 5 -17 -40 85 -60 3 -12 -19 22 48 15 64 -6 77 27 4 -54 58 2 47 -72 62 32 81 -24 -28 -44 -38 -61 53 -76 79 -90 -89 -59 -66 -14 -87 78 -42 -83 -30 25 -39 84 50 69 -34 55 -26 20 -57 0
82 50 39 -16 37 90 43 -34 -77 -1 9 -69 -4 -14 21 74 -62 -63 -11 -84 -17 -47 24 49 -26 -71 72 54 30 -5 -68 88 89 -8 -33 41 -53 -45 52 32 -40 20 -48 75 15 28 -22 -73 13 44 46 18 -3 -7 27 0
-36 -88 -5 -29 -50 19 83 -17 -12 -51 1 -43 82 54 67 81 -34 -22 52 -65 -25 -14 63 80 40 -7 -39 -85 21 4 -89 -86 72 75 -45 -23 10 56 -20 -64 73 77 -6 38 -90 18 60 53 49 -57 55 -16 84 -3 13 0
-74 -33 9 32 26 87 -39 40 -7 76 -61 48 38 -85 52 -81 71 -31 -41 65 -18 -1 28 -68 -66 -20 -57 -64 -75 -63 -59 90 -60 34 77 -8 21 17 11 86 12 67 56 -88 -29 23 49 -25 30 73 45 -70 -84 -19 24 0
9 -65 8 -79 16 64 75 -49 34 -77 48 4 73 -46 2 32 86 -33 45 74 35 -69 87 -10 90 67 -44 56 -31 -27 62 59 -58 -51 61 -43 -76 15 72 22 36 18 -3 -26 68 -20 88 83 84 47 -30 -63 55 -24 37 0
82 57 -64 -78 86 28 58 -72 -7 -3 70 29 35 5 -36 46 -63 -18 -8 39 21 85 -37 -22 65 -43 30 56 15 6 -11 -67 -4 59 61 60 24 74 55 14 50 66 79 1 -90 -83 -87 -69 -2 -47 -76 -49 -9 -52 89 0
84 35 72 86 17 34 32 -24 -10 -71 -54 85 47 -7 46 -80 -58 -38 -4 57 76 -48 -18 -27 2 -11 -25 60 30 19 -12 -29 -26 78 88 -40 56 83 -21 -70 -3 -68 -13 28 31 39 77 -62 69 -82 -43 87 -44 20 6 0
-22 47 -36 -31 -79 -82 -84 13 43 -25 -2 -86 -23 -7 -51 -61 81 -46 26 73 -71 35 83 -32 54 9 -15 45 -60 59 53 -75 74 -39 85 -88 90 62 -11 20 1 30 12 29 -63 56 19 66 -17 65 -42 89 -67 5 -16 0
-27 -89 -46 77 18 -83 90 76 -53 -23 -64 9 -52 63 -78 38 7 -72 -58 -57 34 39 -71 66 -1 85 -22 61 10 -8 -75 -35 74 55 -68 80 -51 -88 -13 -26 29 -87 -86 -25 79 -33 -36 37 -14 65 67 -24 19 -4 16 0
79 49 85 32 81 -80 35 -64 -9 78 40 -46 -90 -36 3 -51 -25 77 17 62 -87 69 -48 -82 -10 -39 60 67 56 -38 15 42 66 19 8 59 -63 53 -2 57 -13 16 -27 -28 21 5 -76 18 -68 -50 -70 -34 -86 45 54 0
84 89 26 35 72 41 -2 66 -39 75 -23 10 7 -9 -58 -16 76 25 -56 20 -81 71 36 -33 -42 -44 -78 47 34 70 40 -37 -73 80 -69 -52 -50 67 11 55 -85 -48 -3 68 -29 -24 -65 -64 -38 1 45 57 60 13 -6 0
59 -67 76 38 5 -57 10 -36 51 -80 46 16 48 -22 62 87 20 68 7 -9 12 35 -15 -86 25 83 -2 -17 -47 11 -84 75 61 31 -55 23 42 58 -81 49 -28 -8 -45 54 -32 14 -71 -73 -72 -21 -26 -29 4 89 -18 0
-12 -74 22 -5 -76 -10 73 -42 -85 8 70 -30 29 11 6 -78 50 -2 33 -86 48 -25 20 64 32 4 13 66 -1 63 54 -45 88 -71 37 65 62 -51 19 -80 -87 -3 -21 35 52 69 -23 61 68 -17 -7 55 38 -79 58 0
33 -11 4 83 -58 6 -56 -47 -28 -54 55 -5 19 -25 36 -73 -48 16 65 -43 -64 -21 89 69 -18 77 -40 -50 -84 -13 -2 10 -17 -66 -71 20 -78 -46 -37 39 12 35 61 38 51 -62 76 88 -26 -7 -3 85 -57 53 -1 0
-23 -65 13 -75 15 42 28 -69 -19 39 50 -62 53 -52 -89 -47 -45 21 84 -61 -36 -83 9 -86 63 40 -55 67 -56 -51 27 -48 2 64 -18 60 -24 1 -80 32 -22 44 -37 46 -11 77 -57 -5 85 -14 88 -31 10 -3 -38 0
14 36 -17 -4 51 -65 -9 57 41 11 -24 3 28 -61 -48 54 -19 10 50 69 -79 27 43 -42 71 77 -1 84 7 13 -82 -39 44 58 -73 -32 46 -83 -52 -88 -86 -74 23 -60 87 -75 -90 -30 -40 37 -85 20 -16 -66 -78 0
66 -53 60 51 16 87 36 -7 54 39 -15 40 58 -34 -59 -13 -65 1 24 49 -76 -69 -10 -79 -57 90 86 -61 -25 64 44 77 -22 -31 23 63 -20 9 -33 -35 4 -32 85 -70 83 50 80 5 -52 29 14 71 -19 46 74 0
58 -84 -69 66 13 20 -52 -42 28 -15 18 36 5 60 7 51 -75 33 38 -22 -30 62 1 25 19 37 -78 -53 85 -24 57 -44 -59 -90 40 -86 43 17 6 79 50 -26 -27 -67 -34 -65 14 29 -35 -87 10 -80 46 55 -4 0
89 35 64 71 27 -61 9 -36 28 -6 -19 -78 -43 -66 -63 15 29 79 -47 -44 5 -11 31 73 -87 -37 17 8 68 39 84 25 -80 -46 50 -3 -41 65 60 33 -77 -7 -85 14 59 -18 57 82 34 -20 -81 -55 67 45 1 0
8 79 27 -71 -89 -7 -35 -18 21 64 73 -54 -44 -2 38 75 -51 -36 -65 34 43 -68 -58 39 19 -11 52 13 -16 66 -46 56 -33 31 -77 82 24 29 37 78 59 -49 -5 -87 10 -25 45 -74 -15 -14 -55 20 -81 1 62 0
-18 -11 -7 -59 -23 9 32 -10 -12 -52 77 -64 -19 -34 -78 -4 -61 -44 82 -89 58 2 62 29 14 -30 -68 66 -36 -26 40 -79 16 56 47 33 -60 -20 21 -88 -8 -57 -5 31 38 37 -25 39 3 -13 84 -75 -83 6 15 0
78 -55 -22 85 -60 43 -8 -47 -63 74 68 49 -5 -88 41 71 -61 -13 77 33 -21 -20 -44 -26 72 -23 35 -29 -64 -30 50 -76 34 59 45 -62 -18 -80 14 65 -73 -86 11 36 -69 -42 -7 -48 -25 -40 87 37 -15 -56 -4 0
-31 -14 81 -45 64 61 -22 65 23 29 -77 55 -63 18 -17 41 48 -33 -79 -37 19 51 71 -38 59 -43 82 85 -68 74 8 -12 9 -57 58 83 -84 24 -87 -28 -88 -21 -44 -56 73 32 16 -53 -49 -3 80 -50 30 25 7 0
51 46 18 66 -87 63 -54 50 67 -74 -25 -76 16 83 34 15 44 80 41 84 -79 40 24 -90 36 22 -9 29 -56 -49 -82 -53 -30 32 -5 60 -70 85 2 65 -77 -37 23 -33 -38 -39 35 -86 3 -11 13 61 -58 14 17 0
10 -45 82 4 -65 -24 -58 -55 80 9 -46 -41 -40 -77 36 44 63 -8 15 35 5 -39 -52 76 -1 38 7 29 -66 -89 -33 78 -14 -90 -69 79 25 88 74 87 30 18 71 16 73 -72 60 81 -84 21 -22 85 -6 -13 -70 0
59 -21 -52 -24 -44 -62 -50 -6 33 -28 -39 -66 -73 31 -23 18 74 -20 -32 10 27 12 -87 29 -56 -37 -81 -67 -3 -55 43 88 60 -76 -53 -58 -45 -48 -11 35 -83 -46 -64 -86 8 38 -65 -42 -22 40 68 -84 89 -71 26 0
58 -78 -47 76 -54 -56 -45 -30 68 88 25 -17 82 87 43 40 72 32 21 -63 49 20 53 -3 -33 89 -14 81 28 -5 60 -29 -19 -90 -11 77 61 -51 -4 71 -65 18 -31 -23 -13 -35 64 39 -24 10 -73 -46 -62 57 12 0
54 12 -18 -71 77 22 -40 28 10 23 1 11 -9 67 41 -62 88 24 -65 45 30 -7 -19 -47 79 -75 -60 57 -81 83 49 74 14 -56 -32 44 -69 38 -13 48 25 90 -61 59 -89 35 -73 58 -21 -31 80 -3 -76 -64 63 0
10 -65 60 53 70 25 14 33 -89 12 79 77 -81 -31 54 -18 -71 -36 -40 -15 39 -4 -7 46 55 27 42 -3 -32 47 -13 5 78 44 57 -90 84 -67 -24 29 1 74 45 -43 88 85 -56 -66 2 35 -64 83 41 59 -52 0
-44 52 69 55 17 -32 80 79 88 -45 -31 61 11 28 71 40 64 20 -22 -77 42 -33 -24 54 -73 -7 -16 67 -51 -25 -15 56 -90 76 -78 -84 6 53 -89 68 -82 -21 14 48 23 -83 41 81 12 -36 4 -3 43 -10 -9 0
-46 -31 49 -18 83 38 -53 65 -58 -84 -86 60 -82 3 -75 -36 -51 2 -25 35 -14 -11 26 -74 40 28 -88 -19 73 10 67 -29 12 59 -54 9 -77 -55 42 24 -89 -15 6 7 64 -50 22 90 76 32 87 -61 -27 16 -48 0
7 50 8 39 17 -84 86 65 -38 37 59 -78 52 30 -36 -24 -48 56 51 -79 -33 -43 -76 54 61 -66 74 20 -60 62 -68 -67 -26 -3 -45 -13 -85 -46 -18 58 40 49 -32 29 -89 71 -83 27 82 -69 73 -19 -44 16 22 0
68 -12 -20 -18 -30 -73 44 -79 54 4 -45 74 60 39 -88 -38 -6 -28 -21 71 49 82 34 5 85 -13 1 -63 -83 89 58 87 10 55 50 33 -80 -53 84 64 23 42 -14 59 -16 -22 -37 -65 -47 31 -35 -27 70 17 -66 0
-57 -31 -43 30 -88 -45 -39 11 20 -16 -68 23 -38 -73 17 -19 55 10 -80 53 36 87 46 74 -61 28 -48 51 -44 15 67 -9 7 13 8 -1 35 -89 -78 -18 -37 -49 14 -82 -76 6 -26 -22 34 -33 -32 -86 72 -5 12 0
-56 26 -6 73 30 9 52 42 -77 -25 15 33 -84 -80 3 85 -13 54 -61 2 -49 14 -87 -23 -7 19 -8 -48 -88 -72 38 -32 -64 86 -59 -31 5 -11 -24 21 36 -46 22 -44 10 -16 35 53 78 28 -51 1 50 -43 -45 0
88 73 -58 33 -26 62 -43 35 59 -72 -86 82 -85 30 -71 36 74 -69 87 -6 -44 -90 -31 -76 17 84 -60 -54 19 9 77 -81 -10 -15 -40 -79 -8 65 68 -27 67 75 16 38 -32 51 61 -78 41 25 -20 -50 -4 -46 -24 0
10 21 -85 -87 -40 -26 -35 -73 -29 25 -19 6 23 11 54 -47 79 -16 -33 45 -31 20 -14 -68 -22 -38 46 70 -88 81 50 -9 -76 -66 -71 49 41 36 27 -30 64 17 -57 86 -65 43 7 -39 -24 -84 51 3 72 -12 82 0
-82 -60 -77 -19 -51 -1 70 50 61 -53 16 69 -67 -48 21 73 -62 88 64 79 -40 25 -75 8 -68 -41 -85 -66 90 -33 -36 37 -20 49 34 -45 -10 -35 15 -28 30 63 55 -83 -78 65 86 -14 -27 74 52 -72 13 32 89 0
3 -44 -50 86 -81 -37 -46 47 -76 -38 -21 -12 15 -62 36 48 83 1 -87 89 -74 23 -6 -4 -57 25 20 -28 -33 -9 16 72 39 -84 -40 -29 -30 41 -54 42 -67 26 -60 77 -64 10 -66 -14 2 -55 68 70 -59 -88 18 0
-20 58 65 -62 -33 -71 -90 -41 55 -56 25 16 57 39 -73 67 -22 -29 30 -89 28 4 54 -76 1 -26 -83 80 46 -86 -36 59 63 -74 61 -38 -88 -45 82 78 -75 -7 48 10 -37 -51 -24 -50 -15 -31 2 -84 47 18 3 0
-54 -26 -21 60 43 -73 -82 41 -32 62 78 77 -39 -30 90 34 -80 40 -13 1 -36 28 -76 -2 44 58 27 52 -17 -85 71 72 -31 50 -38 -65 -3 51 -24 -45 22 7 -11 4 6 -75 -64 -81 47 9 53 -61 74 -69 -23 0
-45 -14 31 -90 64 60 12 41 -23 -80 -24 39 -57 56 -54 26 -30 9 25 77 47 -53 2 34 22 36 -49 6 8 -43 48 -21 -75 -38 -51 79 -63 78 59 -86 -13 16 -81 -67 -20 17 -58 -44 -4 -70 -66 42 37 -7 -82 0
-4 53 13 29 27 36 55 50 52 40 76 -15 57 77 81 20 -82 42 45 -67 -63 48 44 -1 34 72 18 -75 41 -65 64 38 -9 -56 66 -22 -19 74 -2 39 -85 -5 80 43 -49 86 -84 -3 33 -23 -61 -89 87 79 58 0
63 -69 -87 -66 56 89 -25 -7 -73 -31 90 -9 44 24 83 -45 84 37 29 43 33 -40 -51 -30 -11 -81 6 -70 78 -35 -52 -3 -49 -50 4 -5 61 34 85 -16 80 -2 26 -23 38 36 32 -1 77 -62 71 -46 41 -64 -10 0
-78 56 -29 -77 62 -53 61 84 -3 -9 24 -50 -19 51 -34 28 -11 -8 -5 -74 40 4 67 -31 -14 48 -30 -70 -45 33 42 -26 88 72 -81 -55 -13 -37 6 -66 82 75 -1 21 43 -10 73 -25 -38 17 65 -79 -69 -7 83 0
-54 69 -77 -84 -55 -89 -36 -58 -46 -88 -51 -11 -6 24 -85 -8 42 12 53 -5 52 -62 -35 25 -79 50 82 67 90 39 71 22 -59 -3 81 49 -18 -72 -33 68 47 28 65 45 20 -64 -83 -16 61 21 86 40 4 76 -32 0
-90 -26 -41 44 84 -56 30 -24 74 -70 12 5 -46 -3 -86 -37 68 -88 -13 -38 -10 54 34 59 64 -1 -77 -40 61 63 43 -78 83 -53 -31 -20 -81 -76 -55 -27 7 -14 -39 -33 60 -9 23 -28 -49 89 -58 29 -69 -8 -85 0
