c Random CNF formula
p cnf 88 288
19 27 41 70 -85 22 55 47 43 66 10 40 76 -61 62 77 -87 -1 74 68 14 8 12 56 -46 2 7 -26 -54 -83 -75 64 -35 -34 -81 -39 36 17 16 -15 -57 4 -18 28 63 -29 88 -13 -24 71 -69 -72 -44 45 21 0
-64 85 -8 45 -21 -22 3 -61 -47 63 -2 -31 -59 -7 -69 -38 -24 -87 66 58 -54 83 -52 -19 6 25 62 39 -53 -78 -13 30 -55 82 40 73 -76 -79 -17 -20 -26 32 51 -70 88 44 23 -34 -11 75 50 -72 46 67 12 0
87 -10 -64 55 -4 57 -26 67 -78 -20 -46 9 76 2 -73 -65 -27 -29 -1 -61 -86 -70 42 -45 -80 -40 -71 77 -44 74 15 84 63 -28 39 -51 -12 41 83 -75 58 -56 -43 -79 -13 -48 -16 36 6 53 -68 35 -59 -60 24 0
37 74 -4 8 72 -48 31 26 -14 39 63 29 65 -59 43 -46 28 -24 69 -44 56 -7 80 51 -60 -30 -9 -3 35 -25 -49 -11 75 -5 20 58 -21 32 -83 87 82 55 52 6 70 -38 -34 -68 73 -61 66 41 13 71 -78 0
62 -19 -34 54 66 74 -23 81 78 -57 42 -83 65 -11 51 59 -22 -8 84 -25 87 -1 -75 -49 20 -43 82 -69 -31 -16 -2 -63 -60 14 9 -72 29 -35 6 58 -41 37 -3 -80 -44 33 30 -71 -28 -53 -32 -4 -7 -45 76 0
-64 -51 -45 49 -58 39 -55 -7 3 -87 53 -12 16 78 54 50 17 -84 -67 46 5 52 -66 26 -69 23 10 -62 85 -70 -80 37 61 27 72 73 -44 -18 -19 -14 -35 30 1 -74 59 -60 -75 81 -43 -8 48 -86 -6 -15 -31 0
-82 20 -44 31 86 54 4 58 30 1 -80 -15 13 -38 -72 -79 85 -75 -60 -24 14 41 76 -5 -21 49 47 -88 -25 -71 34 70 65 73 -10 -33 62 81 -11 83 52 -51 -57 27 -35 77 -69 -78 -39 -61 -50 56 67 -26 -29 0
29 -17 -40 -70 33 41 -27 -24 -39 -36 -77 45 12 -38 -28 -58 81 -14 -59 7 72 87 -18 -76 42 -5 -84 19 -8 11 -80 -20 88 15 57 75 -48 -22 -16 46 61 79 -32 -54 -56 -71 52 55 65 -74 -67 -21 -25 -6 62 0
52 85 -27 40 -39 -5 -21 -18 16 -58 -22 1 87 49 -15 -29 -34 -37 -42 78 -70 -57 86 -75 -35 -51 81 10 -65 30 -43 62 -55 -47 -36 -6 45 -12 76 -11 19 59 -17 -8 14 -82 -56 79 20 -54 -48 44 7 28 2 0
-26 -13 -44 7 35 -15 -45 -22 51 73 -1 -23 -30 20 69 55 -88 -82 -84 76 -5 -14 37 75 16 -18 29 -60 79 25 71 -24 48 42 -59 -68 -66 -70 -27 -2 -61 9 -41 8 3 50 -72 -36 77 -43 -6 -63 -28 34 53 0
-24 -42 -27 31 -7 -56 54 9 18 71 60 -61 29 -12 -1 59 6 48 82 73 43 4 87 64 -36 5 16 33 47 52 -28 63 79 -2 -51 -22 -57 44 -55 -65 -81 66 88 40 -37 -75 -13 -76 -72 -3 30 -86 69 26 -8 0
87 -52 -63 37 -7 39 -58 -49 48 44 76 -22 -53 -4 14 31 18 -1 -86 27 -74 -66 38 -56 30 -46 -62 -43 5 -16 36 21 40 47 20 68 3 -8 -82 -67 -29 -23 -85 -54 -42 -33 34 -32 -78 -45 80 75 -83 24 81 0
-77 -32 14 -83 63 78 57 -44 81 87 -29 1 9 28 -40 -75 -37 23 62 36 -19 51 60 74 -86 41 -22 -85 47 -43 -45 4 -6 -88 84 55 -24 -12 -13 68 -46 -5 70 27 54 79 66 50 -17 39 -80 -82 -61 -56 -30 0
-78 -12 -36 28 88 -48 11 45 31 -46 65 -26 -1 -6 42 -22 67 -49 -9 20 76 63 -25 39 32 -4 -84 -19 23 -55 -34 -7 -21 -62 56 -68 61 -18 -72 60 29 10 85 -27 -16 -38 2 -35 3 -66 71 5 -86 -15 -53 0
54 -39 68 83 -20 45 30 -1 62 52 43 -60 -86 29 -85 81 9 41 32 4 -75 -47 58 -18 17 -12 -38 10 28 77 69 -72 26 74 24 -78 -64 87 -65 -48 53 49 -13 56 -46 2 -35 37 -66 -82 25 -80 -40 -5 -73 0
-2 -58 -68 9 -1 87 -85 17 -19 31 -72 7 -12 -53 33 -84 -57 -45 37 -3 -28 86 36 -63 -40 14 -69 70 -66 8 23 54 -21 24 46 78 56 -49 77 41 50 -18 80 4 -67 39 -13 60 -26 83 65 -88 62 74 -48 0
-31 6 -23 -53 -65 75 78 39 50 56 -72 -44 82 9 43 35 -80 -14 71 87 -18 5 40 32 57 85 33 2 83 42 -21 62 -13 24 8 -81 7 -58 51 -37 -10 4 17 25 -28 -29 -55 -61 88 63 46 15 -66 22 79 0
-82 -36 17 -31 24 -22 -75 21 -5 -4 78 -27 29 -39 77 -74 28 6 -87 51 73 -46 -84 -19 -55 -15 64 -7 42 -47 71 53 -18 45 20 -1 -32 79 -33 -9 2 -65 -48 61 38 -70 -49 -83 13 60 25 -44 -85 -8 -23 0
15 23 -56 21 -48 18 30 11 -76 -45 31 8 12 -42 -38 53 32 -72 16 -66 77 -54 -63 73 -7 40 -6 59 24 62 37 9 -4 -43 60 84 88 -61 -79 -64 3 -29 51 78 10 -33 -36 -55 5 26 47 -39 -13 19 83 0
6 -66 -54 -7 22 48 -20 42 21 -55 -37 -77 -47 -58 -70 51 -28 84 39 -3 -27 -67 72 68 63 56 -30 -78 31 -40 -71 -15 33 53 -24 -12 -83 64 -16 -14 1 2 -57 10 -38 -69 5 -74 -25 75 -17 -9 -61 79 49 0
-59 74 41 71 -36 67 -66 49 52 68 -60 -50 -26 10 -29 11 69 -45 37 24 32 7 8 -58 -42 3 -72 -85 -40 -44 31 -13 80 18 70 -79 -56 -48 87 57 77 -47 -75 2 -81 15 -9 -33 -20 12 -21 35 -16 86 -55 0
23 43 -66 -88 42 -60 -68 76 3 30 -72 -15 13 62 21 -54 -48 -25 -19 -22 -71 -33 -85 -2 -79 5 -63 -32 16 -12 24 -4 -64 50 -59 -6 -47 -29 -17 -18 80 87 -81 34 -61 -28 -53 38 -75 -65 49 52 82 -83 -31 0
75 -23 77 62 52 6 -25 15 32 29 31 -39 27 -55 -68 -78 12 84 82 -44 -22 -11 -16 -81 74 -42 -37 -28 1 -46 35 -70 -49 86 -14 -61 17 -69 -9 -54 34 60 -10 -41 65 -19 79 72 -67 43 59 30 21 -18 40 0
84 15 -22 50 -81 12 86 16 88 -25 7 36 -83 19 8 -6 -32 -53 58 17 -44 -47 72 -31 -2 -65 -18 80 67 -66 28 -73 24 -48 -70 35 -37 5 -38 43 -55 64 -34 -33 -57 -61 -10 78 74 56 69 -59 -4 82 -14 0
80 -42 -48 71 60 -30 -45 -20 82 64 86 -28 -16 -47 -34 -78 58 -49 32 12 76 -31 -79 6 -51 -40 87 -24 -36 -75 17 -5 74 56 -14 61 9 -4 -63 -10 55 2 -88 -38 -27 26 -54 -33 21 77 -67 3 -57 73 -84 0
-67 -78 -80 -15 -21 48 35 -1 -23 26 50 -9 -3 -71 -47 -76 -73 -29 62 12 5 87 69 -37 34 -85 88 -65 -40 10 -49 -38 -20 24 44 39 18 -72 19 83 6 -32 82 -46 36 63 79 86 -56 14 -81 -66 -13 54 77 0
47 16 71 35 -80 5 68 -41 -67 27 37 -49 21 31 78 -73 -14 -24 50 -26 60 34 82 85 -32 87 48 33 -10 -64 3 -84 11 -20 12 -39 40 36 -45 -15 -30 -77 58 -79 -18 43 6 -53 -28 1 -83 -25 86 -61 76 0
48 -36 -10 75 28 11 49 -13 -20 -87 16 3 -54 22 53 -77 -65 39 -51 -50 32 86 25 -24 -55 69 -27 88 33 68 9 -78 -2 -4 -81 64 6 29 66 7 44 -59 -72 73 52 -17 -46 15 40 19 -56 61 60 80 23 0
81 -23 41 83 72 71 54 43 -39 -19 -63 30 34 49 58 17 -65 32 -37 -7 -13 -38 -67 -5 -4 -84 66 -12 77 68 -85 3 29 -24 25 -73 -45 -51 69 -21 -52 79 61 86 1 -70 -28 62 8 59 -46 9 -18 16 33 0
28 -26 -34 35 -72 36 10 -27 -41 -40 -52 -53 -29 84 59 9 -78 85 75 -39 -70 25 -47 42 19 82 -57 -8 54 88 23 -43 -5 51 -45 -76 2 24 48 -77 17 74 -44 58 -22 -83 -6 1 71 63 -37 62 7 50 3 0
24 -13 3 -20 82 45 -56 14 -66 69 59 40 58 71 -6 17 22 -83 7 2 67 54 -30 79 46 5 -19 -50 -32 88 10 51 74 -35 -39 -31 -87 68 86 -63 27 80 -1 -73 -75 -70 -34 15 -12 72 -53 64 -60 -29 26 0
2 72 9 29 -78 82 21 42 -10 -85 -15 61 -59 88 -55 -81 -4 -48 26 24 -31 -23 -74 45 -84 56 -33 63 -32 40 50 14 -34 70 39 -18 -37 -62 -54 30 43 -60 38 49 -86 3 -67 19 -53 64 46 -68 -65 -83 22 0
22 -27 -15 -5 60 -20 79 -78 -46 -49 54 17 -69 64 -14 2 4 -82 -84 39 37 45 63 3 86 -68 -43 6 -71 44 -32 -66 26 -53 -48 33 23 11 76 61 12 -38 47 -56 -87 -85 -36 21 41 83 51 52 70 -59 -72 0
-59 76 -19 29 -79 3 6 47 -40 28 -43 -83 70 -85 58 -69 73 -32 -84 -36 -64 -81 -87 88 78 -45 54 75 -68 35 -24 10 13 -34 60 33 30 -5 66 -31 15 -21 -80 22 77 25 56 63 -18 -41 -52 37 -14 -39 49 0
76 -71 31 -83 20 54 -84 -4 65 64 -18 79 -29 74 41 -14 32 -34 50 -35 3 -1 75 45 -2 7 16 87 73 -26 22 -33 56 -63 -5 55 13 69 67 -28 78 11 -77 62 47 86 -27 66 -85 48 80 -57 68 53 10 0
-22 81 -76 -51 -84 32 10 -42 -25 -27 -24 40 66 41 -82 86 23 26 35 71 55 -73 -44 49 45 -17 -64 14 -61 -46 7 -67 68 83 2 65 78 -11 -60 -20 -58 -69 75 19 18 -38 37 -33 -34 -4 85 -39 56 70 -9 0
64 -66 8 -40 74 82 -79 -2 -15 -42 48 63 4 -39 17 -83 28 61 72 -69 13 -60 9 -76 -25 -80 -51 -67 -23 78 38 45 -35 10 22 -85 11 -57 -34 -43 -77 71 44 53 73 -31 -41 -30 3 -26 68 -29 56 -14 -88 0
48 85 -73 -87 -17 9 -78 -39 -79 -33 -43 -60 -49 -1 -62 75 -67 56 2 -30 -28 -59 -54 -25 64 86 -40 -44 -77 -57 -29 83 65 -47 63 -37 31 82 45 -7 -68 -51 58 12 3 72 -19 -8 6 27 -84 -32 42 35 24 0
-66 -76 -1 -77 -54 35 21 31 36 62 55 -33 23 34 -65 -74 87 -20 45 -17 -49 -82 -26 -71 63 2 9 75 -57 -53 -47 -39 29 37 -7 -18 13 24 -19 -88 -69 -78 73 15 -8 58 56 -10 -67 -86 -48 -22 79 70 -14 0
31 63 -79 23 85 -70 -80 -26 13 -19 52 55 4 56 38 -36 77 82 47 25 21 61 87 -42 -81 -74 -24 -22 -37 34 8 18 68 -72 57 -1 29 -27 -73 40 -54 -6 -88 -76 14 46 -28 -12 44 53 -7 17 -64 -39 -41 0
-80 -18 -62 -5 42 -75 77 -37 -25 56 -35 -65 14 -28 49 -87 86 38 -64 3 -82 -79 -7 -16 -24 -52 -69 -34 -47 15 85 50 -20 -53 30 -71 -10 -54 43 83 74 55 -22 40 72 23 11 -13 -78 48 -57 21 26 -45 -27 0
70 39 46 -13 80 -17 4 -18 -24 85 -49 -68 40 59 -47 75 -81 66 -72 26 28 27 -10 -86 32 20 -57 34 -19 -6 -58 -53 31 63 87 30 38 -2 -64 -35 76 12 5 -42 82 -83 62 22 16 23 -45 -29 74 33 71 0
-82 40 -85 8 -83 -15 28 11 -16 -75 -56 -34 59 64 -48 41 -10 -17 -68 32 27 70 80 -2 -18 -57 -14 52 -58 37 53 71 -60 12 24 -13 46 -26 23 49 -43 67 -9 -4 76 -29 42 84 -62 39 44 72 73 3 -66 0
-16 -13 -68 -32 36 11 79 -55 57 -62 -3 -5 86 52 54 81 88 19 -58 -4 -82 50 -10 23 -41 47 74 60 26 -51 -70 49 6 -65 -29 39 -69 17 -31 -75 -22 33 71 61 -77 -1 -53 -8 25 -63 -84 -21 -15 -42 -46 0
-39 83 45 -51 -13 66 -38 56 -50 53 12 32 -10 2 41 -43 44 -14 59 34 -27 -74 78 -76 -4 -19 62 16 -81 -61 63 8 -67 -57 -68 -70 -23 -33 49 -47 18 7 -84 -17 -64 -30 26 -69 -3 -80 -79 37 22 -85 60 0
31 -13 44 -28 -27 -40 41 24 -65 -51 -34 -47 -70 14 36 -30 -72 -52 -67 83 18 -20 -19 -82 59 -43 4 -66 -79 -22 -58 -11 73 42 -50 9 -33 1 77 29 76 21 8 38 7 -78 -86 -45 -12 -17 -2 -23 87 -6 56 0
-9 37 -55 -47 85 -1 59 -67 88 74 -45 -77 -21 -38 -66 83 -63 -87 17 -15 -26 -5 20 64 -7 23 -65 35 -42 60 14 6 -84 16 13 24 56 80 39 51 -41 -73 -19 2 -76 82 -70 -53 50 75 -68 27 4 32 49 0
-72 -29 13 -8 -4 -80 32 45 64 -60 24 -77 -71 26 -65 -42 55 58 48 46 31 -22 -79 88 59 16 35 -85 87 39 14 51 -49 -61 -15 18 -83 28 82 66 -57 73 -74 63 37 50 -53 17 44 -84 27 20 -23 -12 -5 0
-72 -70 13 -57 5 -22 76 -60 31 -46 -58 30 -33 -16 -35 28 -78 -2 -39 -44 9 19 42 66 37 63 -55 26 -11 14 87 -29 21 -81 -82 20 38 88 -32 -65 -6 -80 -48 -79 -67 64 -49 -24 73 27 36 -1 69 75 45 0
-14 9 -84 -51 -30 58 52 -73 15 -88 54 87 47 33 31 67 83 -26 -32 78 -43 -13 -61 -85 29 41 64 -79 -11 65 76 -77 49 20 -72 -38 4 82 8 -45 39 44 7 68 -81 50 48 6 -35 28 -71 -60 19 25 37 0
22 23 -39 -34 -81 -5 -36 29 -74 -15 86 1 75 -88 -62 -64 -40 -44 -51 -3 60 -77 35 -73 -59 42 -43 46 87 -55 -56 17 -11 -52 -47 -38 -68 -7 9 -37 31 24 -83 -65 48 85 57 54 66 -30 -41 -12 -2 78 -50 0
-14 -19 65 47 -46 74 -70 -75 82 -78 -48 56 64 -84 -27 -79 20 66 60 -6 4 -63 -18 10 55 -54 -11 -71 -34 -83 -43 2 86 -72 -80 9 -32 58 41 76 22 -81 16 36 -44 -17 -15 -61 -77 7 -52 85 -88 -37 -23 0
14 85 -27 -33 62 10 -2 -51 -19 -18 -69 -59 -16 31 80 -9 -75 48 -22 -57 15 41 -52 66 79 37 46 81 -88 -8 23 -50 87 29 -21 -26 76 -82 4 68 78 20 25 73 -11 -3 -71 -30 86 -24 -1 70 -64 65 -47 0
-84 -1 -18 68 -27 23 -17 71 -52 -36 -49 22 20 -80 -73 -13 -57 60 33 31 40 64 34 -26 -79 74 87 -51 -63 5 -78 29 -39 -8 -85 -16 19 69 76 48 25 32 -59 9 67 -42 35 -58 88 28 3 -62 43 -11 45 0
15 16 -64 48 -72 -45 82 -7 70 75 -84 -28 47 -8 -36 39 57 21 4 50 -26 -43 -87 -31 6 -71 -83 30 -17 -77 44 24 -60 -29 41 55 -1 -68 35 -32 37 54 27 38 25 -19 -10 -34 12 3 40 -42 46 -58 -11 0
66 -88 1 65 -79 9 -45 63 5 29 -81 -75 11 -37 69 -33 -47 -86 -10 26 -36 50 60 24 3 4 85 64 23 13 53 61 41 30 18 32 -35 -80 51 14 -6 68 56 -8 58 52 -44 -72 48 67 -39 46 34 -87 27 0
-74 16 44 -56 -45 -29 -62 -6 -71 17 46 -82 -43 -42 -58 63 -70 -68 -77 -11 -52 -81 30 -40 -21 -67 -53 -7 38 3 13 49 -5 -75 86 -48 72 -10 -85 83 -84 -27 14 78 -41 -88 -26 -37 35 -80 -34 15 -32 76 -1 0
54 -65 -27 72 30 -15 43 -24 69 -47 -77 70 50 66 32 28 68 19 -84 67 -88 -25 -14 -39 -82 -85 36 -75 -5 -48 73 -71 -4 59 40 -78 61 -34 -17 -26 51 10 -2 45 -38 63 -53 64 -16 -13 -18 -79 -42 87 -86 0
-76 -65 -78 -86 -87 -55 -6 3 88 75 -11 -54 -68 -57 -31 -52 2 12 -4 -45 -44 37 24 51 60 1 26 20 47 -23 -50 -27 -14 21 -15 -38 64 -67 -7 43 61 46 -48 -42 13 85 39 29 59 -69 -49 -25 -62 84 18 0
16 62 -5 51 47 38 -3 -15 -31 85 13 61 -88 86 -35 4 -30 -20 23 -50 -64 17 49 -58 -53 34 11 72 -24 80 1 -45 -66 10 -28 -68 -44 -42 77 87 -65 33 74 -32 -8 -78 -70 -83 59 -37 46 -43 29 -12 84 0
82 -11 -73 33 -43 87 -17 35 2 38 -42 75 84 -61 64 -16 -79 -53 29 55 40 58 85 -9 28 32 77 -31 -54 36 -34 71 72 -59 12 3 15 -26 -20 41 70 -5 81 -49 37 63 14 25 -13 -62 65 51 -47 46 56 0
-67 23 12 -53 14 -5 -8 -2 21 -71 -88 -35 65 -63 29 -84 -57 -55 -1 -83 -43 56 -76 7 -52 -68 -13 -74 -28 -32 77 17 -54 -59 -45 -81 -16 -60 72 38 -66 79 31 -37 -80 -47 -30 3 -58 82 -46 10 70 87 78 0
-23 -80 76 -79 63 9 47 -29 -88 18 -37 2 -34 17 -43 -49 -87 -58 8 71 66 -1 64 -55 57 -53 10 42 -35 38 84 -52 -33 -73 -67 -25 -82 20 24 72 -14 16 -51 13 -60 -41 50 6 -44 -68 -7 61 28 -12 4 0
3 26 -57 65 21 10 -55 -84 5 14 -78 63 -25 1 -36 29 31 43 -19 -16 50 81 83 37 -33 82 34 61 -41 53 -40 64 15 -54 45 7 -11 23 -76 -72 66 69 -67 -6 -80 74 -28 35 62 -18 52 -24 8 -77 -12 0
38 -8 -39 26 -52 46 11 -82 88 1 84 47 25 24 -59 50 68 71 -87 -16 76 -53 43 -81 13 -35 -73 -22 30 -86 18 74 -55 -69 -33 -64 -79 -66 -78 -10 -41 -57 -63 49 -48 15 83 9 14 77 -12 20 -60 -44 -70 0
85 68 -76 6 59 -53 -60 69 81 23 70 -87 -38 -34 -74 -8 -86 84 31 -77 -7 -9 -61 -3 66 45 -26 -72 -67 -79 -24 -82 75 33 -16 -42 35 47 37 -57 -52 25 -21 -32 11 -49 14 -10 65 -1 78 -88 -56 -5 39 0
-69 17 -12 -13 37 79 -27 -29 -33 -61 34 63 -6 86 -1 -8 -19 -78 -55 -7 -67 82 21 -77 39 -62 -22 -41 4 -54 -47 -88 45 -58 50 -52 31 85 35 75 15 36 -70 11 -84 10 73 -59 -14 -71 -60 -30 -42 80 -49 0
-55 -13 17 52 8 62 76 -65 -85 37 45 -2 86 -12 25 -74 -9 -1 -44 3 39 80 -59 46 41 22 -54 -43 -33 27 36 47 50 -32 24 -11 -63 -61 68 -34 58 28 -31 -64 4 53 14 -35 -78 -20 88 82 56 -21 10 0
-18 80 -11 43 24 47 -17 -77 -71 32 76 59 -83 68 63 9 38 46 36 -67 30 74 -81 40 65 62 53 13 -25 -39 -87 -21 1 69 -31 -48 56 72 -3 -78 16 -55 20 6 7 -82 -64 -79 73 -37 -5 -51 2 84 57 0
45 -42 -50 -18 -57 -88 -58 -71 -9 1 -37 55 23 -53 -64 60 -44 47 5 29 -7 10 -49 26 -13 36 22 -72 -35 52 77 -19 84 17 81 75 43 70 67 79 39 -61 -63 66 -21 73 -41 78 -3 -51 33 -20 56 40 -65 0
3 80 20 62 -79 -38 -28 -2 14 -67 -36 -7 -46 83 -87 25 27 5 -64 75 -72 17 -16 -54 -1 35 -81 -82 9 -33 53 -73 29 47 -58 -6 40 -59 -42 61 -24 -86 48 19 23 63 12 -74 30 71 49 44 -32 -8 -76 0
-35 7 -27 -62 5 -84 69 21 -44 11 66 -8 -16 2 -82 78 -22 -29 -3 19 6 -56 65 1 24 -75 -77 -15 -67 41 46 -51 38 -17 80 -23 -71 86 -10 -45 -55 -12 -36 39 37 48 -32 49 -83 57 -50 68 -74 -42 30 0
-61 -23 -84 -74 -72 -56 -19 -68 42 -59 58 -55 29 -24 -63 3 -8 -70 -44 2 -82 -75 -62 -12 -18 -38 -41 36 7 -48 -85 26 -40 13 -86 45 83 -28 -5 -67 -1 -65 -31 52 57 -14 -43 -66 10 76 16 88 -15 -80 -25 0
24 52 17 62 16 -58 -38 -64 -86 -1 81 -22 57 -83 -71 -26 42 -21 -14 -76 -74 12 -13 78 -9 63 -47 -31 18 -15 36 -8 85 55 -30 82 20 54 40 43 -11 -77 34 49 72 6 84 60 27 33 75 -3 45 48 -73 0
44 52 -64 -54 28 -14 88 41 -36 83 -50 29 -35 87 43 74 46 59 31 -76 8 -18 -15 -5 49 -81 12 -80 48 34 -79 -86 -26 3 47 24 37 -11 27 73 66 -10 -22 53 -65 17 -32 -38 -45 21 70 40 -69 -1 51 0
59 -38 2 -14 -44 -13 84 29 61 -19 -87 -3 -11 -41 7 -12 70 -28 83 16 21 -52 -75 34 -88 69 -42 9 62 58 65 -74 -81 -64 -67 -1 -68 22 -57 -6 -15 -78 -39 76 -85 35 24 54 53 47 -43 -50 71 -56 18 0
-24 -53 -60 78 -57 -40 4 26 66 77 8 -81 -17 -88 73 -52 -2 -3 31 -80 72 -45 67 76 35 16 -13 42 -36 -65 12 85 -43 5 10 59 -19 55 30 23 58 7 6 -47 9 -82 32 -34 -29 -68 -14 -56 -54 -49 62 0
29 70 -31 3 40 -52 -78 84 -49 50 25 -35 5 21 82 -38 -20 -67 -2 -18 81 75 80 -15 60 -48 54 -86 -36 -45 -14 34 -55 -9 59 -87 11 -77 65 -62 -61 16 63 -42 37 22 72 27 88 -19 -39 -24 53 -44 -12 0
-55 79 -51 70 21 -28 62 65 40 35 19 6 83 14 -20 13 3 -31 -45 81 -52 -12 5 66 -50 78 -64 74 -80 -7 -43 -23 -30 -75 16 49 77 -36 -56 39 -26 -85 42 -27 17 -32 -61 59 -38 -54 2 -25 18 -10 -24 0
74 -71 -83 43 20 65 58 -75 19 9 84 -12 59 -4 79 -47 -68 5 -66 -63 -38 15 37 10 6 30 73 51 40 -32 -85 29 -48 62 72 25 87 -64 -52 -22 28 21 16 77 -86 54 -55 24 39 -3 -36 8 -26 -88 31 0
77 8 28 4 -29 39 -59 -76 57 18 56 12 -84 -40 42 -78 68 -61 19 -7 -71 65 -69 -25 -73 -74 26 27 31 14 53 -50 -47 15 -63 -44 -24 2 70 -88 -64 -51 66 -11 45 -48 -54 -83 17 -32 -37 -38 -81 87 55 0
81 -24 -21 19 -29 61 -82 30 -8 53 87 62 -74 45 -86 5 -69 -64 84 -49 76 -9 34 42 -2 -31 -40 16 25 54 -67 4 -1 -78 -63 -83 18 -55 -22 65 75 -85 -88 -59 -27 -80 -66 -56 -46 -3 43 -35 -33 15 -77 0
74 -3 7 -71 59 58 -64 79 8 50 44 -20 -67 15 66 45 35 30 4 -37 -61 83 -31 -19 11 75 24 21 38 54 -57 12 -27 28 76 10 82 69 -80 33 18 -72 32 -49 -70 14 42 52 29 53 46 84 -41 77 40 0
-65 -20 77 47 28 -42 9 -31 44 -26 -19 -39 5 -60 -17 -64 4 -36 6 -52 -53 -33 15 69 35 18 -74 -54 -30 62 79 -23 -2 75 -40 22 -87 67 -37 -25 59 49 -80 -88 -1 -56 -27 -58 -14 73 16 -63 -8 -34 70 0
26 14 46 -72 35 -34 -77 62 86 25 88 37 45 -13 -33 -70 8 3 16 -74 32 83 82 56 61 -40 58 64 -31 1 57 -17 48 -47 -6 -51 85 -55 -84 -38 -4 19 54 5 -36 -71 21 67 -68 30 69 23 -81 -15 -65 0
-76 78 -44 64 5 -31 -38 12 -3 56 -1 20 80 -8 70 15 -26 -75 60 22 17 4 30 79 -81 54 -51 45 -67 -13 57 -48 -11 7 73 -2 18 77 47 23 -24 -53 58 36 -25 9 61 -6 32 68 59 46 -72 -29 62 0
39 49 -85 11 42 -29 -45 66 -37 52 3 36 16 -7 -5 -46 34 74 19 -4 58 63 -87 -57 -76 -13 -8 -65 2 -41 -24 86 -84 30 33 22 51 -18 25 79 62 82 -15 73 -6 -67 23 43 -56 50 44 54 -47 78 -40 0
-71 22 80 28 3 -75 -33 60 34 31 -21 29 43 7 -27 -8 20 77 52 11 44 82 16 57 36 -72 19 2 -51 53 -14 -50 26 32 59 -55 -41 46 30 -24 87 56 1 -25 13 -18 58 -39 -35 -49 84 -17 66 -9 -73 0
-55 56 -47 -87 34 57 60 -36 -11 21 61 -71 10 81 -1 -78 30 33 58 -70 -15 -35 44 73 63 -45 -6 3 -43 75 12 27 17 23 28 37 -2 5 9 -46 -42 -83 -72 -68 80 -8 -52 4 24 22 26 -41 49 59 -16 0
20 -35 66 19 -8 87 18 -56 43 22 -78 46 70 38 33 -80 51 -84 -67 -61 11 -30 17 -72 -4 36 -28 54 32 -10 74 -5 -86 29 -16 -69 58 -73 23 -13 -83 -85 -37 64 -59 50 -77 3 -71 -48 7 -21 -55 60 39 0
2 -62 52 66 -88 -15 -43 -54 36 57 -81 -7 21 70 -14 53 39 37 -63 20 18 31 -69 28 -38 -71 82 -49 -41 46 -51 40 22 -34 -13 -80 26 -5 -83 -6 64 59 68 -11 74 9 -67 1 -4 42 25 19 -32 -86 73 0
57 35 32 88 -36 40 25 86 -27 43 -46 72 -22 -47 -67 6 -51 -74 -85 1 -60 -3 44 -77 42 45 80 -34 -50 -65 70 -53 -75 -13 -29 -14 24 -38 28 71 61 39 -64 -31 18 -33 -48 -58 -68 16 10 37 -2 41 -79 0
-30 42 51 11 14 18 28 3 77 70 17 -10 -85 -68 -41 44 -56 -32 81 -21 -1 -6 -37 -59 22 -12 69 25 -75 58 65 24 -35 -64 -40 -8 -27 2 73 49 -33 5 -7 87 -82 67 -84 74 62 57 -86 43 80 -4 46 0
-49 77 8 40 -32 76 -22 -54 66 2 -81 -34 53 -16 -84 79 -36 -50 85 45 27 -58 43 -63 -42 -30 -28 -75 71 46 60 44 13 69 21 -5 51 87 9 78 -83 61 23 1 73 -25 -68 -70 88 65 -3 -72 -48 -62 -12 0
16 37 59 44 -3 42 -35 85 57 22 63 62 38 -69 5 -36 64 82 2 -50 71 40 74 -87 31 -45 -67 -83 -29 -39 -32 56 9 -8 -51 58 -24 7 -19 13 55 -49 26 27 -79 -48 -52 -66 54 -23 88 -33 -21 -75 -18 0
-68 27 67 -75 -65 18 14 42 16 40 -44 32 66 -2 -28 15 48 3 -46 -11 -39 24 -50 31 84 -41 62 -59 55 29 1 -20 -56 -51 -36 61 -52 -6 -80 -17 -9 8 54 -79 22 19 49 85 72 -23 76 -13 -10 4 26 0
-59 -70 76 3 55 77 47 -80 -79 -4 32 38 53 48 87 60 -29 -22 -34 -19 -68 17 -28 36 -7 63 -11 -49 -67 -16 51 -69 -41 -15 44 42 72 -35 45 21 18 -54 73 -31 -84 -14 -81 -88 65 9 -1 -23 -56 6 27 0
-48 50 -53 -4 -88 -51 8 -56 -81 -47 60 -13 -19 75 66 -72 22 58 76 -85 -68 -39 70 -65 -29 -87 79 -3 -18 -12 -84 64 -10 -20 -31 -80 33 44 -73 42 -57 83 16 -2 74 23 17 7 -6 -40 30 55 -61 -78 14 0
85 -10 -30 87 75 -3 86 -29 73 -67 -32 51 -41 2 17 40 -11 -58 14 -21 54 88 39 60 63 -61 -65 -9 -81 -16 46 72 -74 53 -35 45 7 -68 -18 -33 56 -20 70 -64 36 -12 -5 -31 13 -23 84 25 59 -69 -77 0
51 -61 36 63 -37 47 22 -4 62 -19 60 53 -32 57 84 -42 71 9 85 -86 1 -65 76 2 52 40 -3 -27 -69 81 -68 -6 -82 -11 -50 67 41 34 72 -10 -18 79 64 -48 -28 74 -77 -70 -7 13 -88 8 75 29 45 0
40 22 26 -28 3 -80 -71 -14 37 1 45 49 56 -16 61 -78 48 5 -36 -13 34 -53 -65 -58 70 -55 9 -2 -24 75 19 67 25 -79 77 50 -18 -44 52 -30 4 38 6 11 66 -20 -8 -35 62 73 -29 31 -88 76 17 0
-42 55 38 -21 22 83 66 -16 41 51 69 -28 -68 -27 75 -80 -50 65 81 -39 56 -57 78 30 9 -77 -29 -13 -34 -2 73 -40 3 10 11 72 -47 37 85 7 -35 74 26 -53 -23 14 -20 63 25 58 -8 -87 32 -48 -71 0
36 50 -13 35 -73 8 -58 -24 -42 70 -23 -51 16 2 44 -34 -45 -62 48 69 -63 -4 64 -76 78 25 41 -71 -29 57 17 87 -72 -3 60 31 -12 7 -9 -67 1 -18 -28 83 80 -37 -6 5 -61 -33 88 -84 56 26 86 0
-31 -69 -51 45 -16 -49 -36 13 -12 -86 55 -52 -56 20 -7 -57 -44 -22 -39 35 11 29 2 14 73 54 -15 -4 -6 -63 -8 -9 65 33 43 62 -74 -66 -53 18 3 32 -72 25 -48 60 76 64 80 82 -46 -1 50 19 -21 0
8 -30 24 7 21 -63 -20 -29 -46 59 -31 41 -75 -10 -16 40 18 44 4 -17 73 -13 68 -33 -77 -58 35 6 -67 2 -85 -3 -23 62 -70 -51 80 47 74 87 15 19 69 -36 39 -82 50 61 -71 -52 48 -32 -5 56 -11 0
-40 29 -83 11 -5 87 -13 35 77 22 -74 -70 -81 47 39 12 71 -59 43 9 75 -16 58 -54 -27 50 -37 -80 65 15 -61 66 36 20 18 -57 52 -30 33 7 -82 42 -2 -26 45 -31 -1 46 -56 21 -51 -62 -60 86 38 0
-54 39 -49 30 -23 -15 -7 87 8 28 68 -65 50 -56 9 -1 -46 -4 -14 -72 67 -32 -13 27 -59 36 -58 -40 -82 -34 37 17 -75 -63 -11 66 19 -71 35 -62 43 16 -45 -21 -74 -52 -33 -38 53 64 3 70 -44 -83 88 0
-47 40 77 71 -20 19 8 26 -74 -87 54 -70 -60 -14 56 30 -66 83 -42 68 72 -28 16 84 -11 -59 -1 -80 32 3 -33 46 29 -9 -37 24 62 44 4 69 -57 -65 -81 -85 -50 -39 75 -35 -64 -41 -53 36 -34 -88 5 0
-57 -11 3 27 -1 -85 62 -47 35 20 31 -37 -84 56 -55 -17 -44 -39 52 43 -18 12 9 -58 -13 -49 81 60 8 -25 -33 -64 -59 75 -21 74 -73 -61 -80 63 7 46 54 -14 65 -82 87 -48 71 77 -79 -24 -41 -26 -72 0
-85 66 -75 -48 -87 72 78 -6 -62 53 -69 42 59 -31 -32 47 -64 -57 71 4 60 20 -27 16 -82 50 73 -46 -9 13 -17 26 -18 -24 -35 30 -44 81 68 8 45 74 -2 55 5 7 -56 -12 -52 61 34 -29 -3 21 14 0
23 50 68 40 20 29 -79 39 -48 9 -8 -66 72 -30 -36 -59 37 -43 -53 -3 45 -49 71 -52 86 -75 88 54 16 4 5 -85 51 -28 -64 58 -22 -81 -11 47 74 13 -24 -62 77 2 26 -83 -80 27 67 35 -84 41 -56 0
81 62 -46 -70 22 41 -86 -50 -15 -51 -55 83 -23 -36 27 -80 33 -77 64 -72 9 37 17 34 -3 71 54 28 57 -49 76 -44 -1 -4 87 56 10 -38 -79 5 78 -67 -73 42 66 35 -13 26 -30 7 14 16 31 47 -63 0
-79 19 31 20 56 -46 16 -61 -48 68 -47 59 38 -17 15 -27 39 -84 -13 -80 -66 -5 87 37 14 -73 -26 -63 -2 44 8 -33 58 -88 -21 -3 60 -54 50 81 -43 18 -41 -74 -78 -77 76 67 -9 -35 -62 53 85 25 -6 0
-61 11 -41 65 -2 12 15 49 32 -48 53 55 28 -79 -3 -44 9 -82 -40 33 -81 -18 -17 -78 36 -80 -37 -46 68 24 52 20 76 -87 -7 -39 83 88 -14 -86 -71 6 -56 25 -47 -4 -21 30 -54 42 -19 26 -64 -59 16 0
-21 77 -61 40 55 -74 -43 -39 17 88 81 -60 -69 72 47 8 11 15 2 -56 1 -23 45 46 -18 -37 -42 50 83 49 52 63 68 14 84 -28 71 67 -73 44 -76 -53 -25 -85 58 32 -78 22 -13 6 -3 -54 75 9 59 0
-84 -74 26 -77 -69 -16 -49 -24 62 -8 -38 80 -9 32 44 -55 -22 -57 -41 30 -71 64 70 31 6 17 -14 -3 -5 -42 2 -19 -60 -81 86 -67 63 82 56 50 75 -47 36 -79 -7 -78 13 12 53 11 28 54 73 -40 -45 0
-23 85 17 -46 80 53 59 49 11 -26 38 7 -28 -62 -86 -79 -21 83 -12 87 -30 51 61 43 64 -71 31 -57 5 -88 8 32 13 -20 78 77 -14 -58 69 -84 -70 -24 2 41 55 18 -3 -36 76 -42 -37 -45 60 -34 47 0
42 -29 -66 -24 38 -58 -77 30 52 70 -65 54 -55 25 18 1 -59 -23 4 -39 76 -85 -62 40 75 -53 13 81 64 87 -9 60 -68 -14 -2 7 -22 79 -35 45 -47 -16 -61 -78 -10 43 -86 28 67 -49 -63 -51 17 -48 -31 0
-53 82 -29 39 9 49 75 -38 -64 -69 59 72 34 42 -26 -21 61 48 -78 27 -55 -25 35 -86 77 -19 52 7 -70 -85 -1 18 13 84 23 -36 -33 -47 80 -32 -57 17 71 -30 31 -83 54 5 -28 6 20 41 -88 3 87 0
-60 81 86 -7 45 25 -29 26 -53 9 -1 -47 -8 73 52 13 85 43 -82 54 -63 -42 78 44 -12 65 46 -58 79 -87 -22 -24 35 88 -69 -50 -27 68 -67 -16 51 70 61 -49 -30 -21 -38 -31 80 -14 -18 3 5 -6 -62 0
-32 -37 74 -24 67 -61 -52 31 -13 -10 -8 72 -64 -22 71 19 15 87 -59 -57 54 66 12 62 29 -76 -41 55 60 78 25 1 48 73 -88 3 5 -46 -4 69 -49 14 -58 30 -45 85 7 -51 -79 -86 56 -43 -39 -27 81 0
66 79 55 36 -80 -25 -45 -15 3 -7 -73 -87 58 35 -39 -17 -48 -50 -62 -68 -52 -29 -84 72 19 54 -38 51 12 -10 -6 -9 43 -83 49 -1 8 61 82 -70 28 71 30 47 -88 -53 -78 63 -75 2 -64 -56 -74 -37 -20 0
83 60 35 59 -6 7 2 -63 -73 45 -21 -69 87 -72 -11 -30 -66 26 -57 29 74 65 -43 -82 54 -33 -46 18 -79 84 -28 81 -37 -53 -44 -23 -36 51 64 -4 24 10 -14 -80 47 39 15 62 3 -88 -49 19 52 -12 -50 0
-55 68 74 25 57 54 20 44 34 -28 -35 -17 -1 -47 -40 66 -31 -26 -49 85 -8 64 -76 83 73 -11 -87 -67 22 37 -69 -58 -36 52 -80 15 -32 -6 38 63 61 43 -21 30 -70 86 -39 79 41 9 72 -59 -14 -71 50 0
50 -86 77 37 3 -41 25 16 81 73 85 13 -80 -5 24 12 -79 -57 -43 11 -83 -17 -6 -27 35 -40 65 -20 -82 75 -48 -38 -84 -88 67 -70 78 87 21 -34 39 33 66 2 55 61 -42 28 72 -30 -8 76 -60 -51 -62 0
-86 -32 8 -55 85 -11 74 -46 -73 -13 -3 31 47 -22 -52 -28 12 -40 24 5 -26 2 19 58 -51 84 -66 -60 -18 -61 59 -63 -35 53 23 70 -43 -57 -62 -33 -54 72 29 -68 -49 14 -81 21 -4 69 -71 -17 42 41 80 0
-51 55 26 2 68 -78 -61 76 -13 -60 21 65 -28 -29 11 45 -17 4 -22 16 34 -73 50 46 -53 25 8 -6 43 66 42 7 32 -67 -14 23 -52 -9 1 -77 74 75 -38 -57 40 -62 31 83 -84 12 -49 37 85 -41 44 0
-46 -71 63 6 8 -61 9 -53 10 42 -51 39 -66 77 -72 -70 -50 60 -65 -35 88 19 -27 85 21 83 -73 25 -13 -11 57 -79 -81 -82 -56 29 -12 -45 62 74 64 44 -30 55 67 -34 -22 14 37 -87 41 78 -68 -1 -58 0
-82 -54 -1 84 81 80 -22 19 -42 -43 50 -79 -76 73 -4 -8 -52 27 64 28 72 41 -75 69 -63 -56 25 60 46 6 -9 36 -44 21 15 -49 86 -70 -57 51 35 68 -3 -17 -29 -30 -31 71 -7 55 37 -32 -38 20 -59 0
56 17 82 -37 12 77 67 -1 -88 -32 22 58 -74 -25 -62 -65 -81 -19 79 -78 -76 -15 -48 28 -52 -87 -31 -20 47 29 -23 11 59 -39 -6 -85 83 9 36 -80 84 -5 27 54 -55 34 2 -21 -43 -86 4 44 -14 -30 -18 0
-42 83 75 34 -84 3 10 80 67 -20 85 46 -43 -52 17 -49 28 82 -18 -23 -2 -87 -45 -4 11 -9 33 -27 56 -72 6 -29 -60 -40 -77 -30 7 -38 -58 57 -78 -1 19 70 36 81 22 -69 -73 5 41 -59 -26 61 -62 0
-84 -11 56 13 49 -66 18 -28 -79 -44 -45 46 81 -42 -7 43 47 34 70 30 -22 48 -37 71 8 -59 68 -63 -85 -51 -58 10 -14 40 21 15 76 -1 39 -20 -23 -83 -17 -36 50 38 -4 64 19 -5 -27 57 33 9 82 0
-71 70 -88 -87 9 54 -75 -84 -83 34 -56 -66 4 36 -67 -41 57 -18 5 -15 -21 68 52 -46 35 -47 73 -28 -49 59 -74 11 29 -17 -31 79 -80 6 -61 -65 -62 -40 33 -20 7 25 -30 -82 60 -64 14 69 77 45 22 0
-54 67 -12 44 -78 4 -66 -71 -25 -52 16 -50 24 -56 -38 -63 -9 -14 65 5 58 -51 -62 -21 47 -46 28 -61 77 -88 -60 -59 70 80 34 -32 30 27 55 64 -40 -23 13 37 -76 -72 45 87 -18 74 -22 69 -11 -31 57 0
-43 -31 80 9 -77 24 26 -44 21 22 -28 60 -51 -5 73 -41 1 37 -87 55 -54 20 -42 25 -45 -4 -30 3 -64 2 46 -13 -39 -83 -53 -35 -76 72 -68 11 -84 -49 -57 -10 66 78 -61 -81 -34 75 -27 -48 14 17 -69 0
-64 -32 -76 34 -83 -39 -38 28 -57 75 -42 -27 -13 -23 -47 15 85 -56 -68 24 -22 41 -35 -46 71 87 -62 -59 -30 51 -6 19 29 4 61 -78 14 -26 -1 -77 -66 -67 -65 21 82 36 3 -73 -17 -5 37 33 -79 86 70 0
18 -71 -16 27 -67 35 32 -82 -52 -34 39 48 55 -2 -20 44 70 30 45 -61 -24 22 -14 88 -62 -33 -56 -10 -17 8 -53 -13 65 -80 -47 1 11 38 29 9 41 72 -3 -57 74 26 -37 66 76 -60 63 49 85 -19 50 0
86 3 -7 16 -26 79 -83 21 12 13 -69 48 -67 56 41 -35 -80 32 14 -8 4 -43 31 -61 -71 28 5 -78 -30 -29 19 -38 76 -87 -45 -46 -54 15 -52 58 36 17 -60 37 64 -88 -47 -11 -75 -1 -77 -20 9 18 39 0
-12 15 7 -21 35 36 -6 52 79 -67 -49 -26 -34 -24 9 74 2 -51 30 11 47 29 -57 16 -61 46 87 76 39 41 23 -72 -73 -37 -28 -86 -59 -13 44 -84 -58 1 -64 -66 10 -83 70 50 25 -48 -82 -55 45 -77 69 0
47 85 -82 -68 75 28 8 87 -36 -77 30 60 66 -74 84 12 69 31 -11 43 -24 57 9 19 32 -5 -7 1 -70 -53 21 -23 -64 56 27 26 51 -4 55 -10 -17 52 59 -6 -18 65 -45 15 -62 -38 61 -25 -73 -72 88 0
69 -34 -29 19 66 -79 53 60 1 -16 -24 -26 -63 4 -21 86 39 9 -25 -37 54 -75 18 88 56 55 -45 38 46 8 13 27 77 -3 62 -76 -35 -48 -59 -7 12 -83 72 28 -40 11 82 73 -80 22 -58 70 41 -30 2 0
-87 38 21 -12 -52 -15 -82 69 34 -43 41 -57 59 -9 26 -2 18 -6 20 17 85 67 -37 5 84 -64 -40 -56 -72 66 -3 13 48 -25 -44 10 -7 -22 35 -36 19 -60 -73 -32 30 54 -39 -68 16 77 63 8 -74 76 -86 0
54 -19 41 -57 -72 -27 -55 -44 67 -36 -81 15 69 -50 -85 -60 -20 46 38 88 -62 58 7 84 -65 37 16 -39 18 47 -35 -30 -73 77 -83 -68 -52 45 -17 42 -2 -66 79 22 -82 23 -64 -28 21 -32 -24 -3 9 56 -78 0
78 -36 -79 -26 34 -87 48 -15 -13 -12 55 -46 17 -49 -20 88 -8 -61 41 56 -71 -29 -14 -73 -6 -81 -74 -3 -82 -83 51 27 64 65 -10 -31 30 67 52 -68 -35 -58 21 5 85 -72 1 -32 -25 -11 -43 66 42 -2 -60 0
76 -78 70 63 85 -82 -12 48 -57 8 -52 -28 34 -40 -1 54 -77 -84 26 -53 -50 87 36 5 39 -71 32 -31 -75 35 3 -81 21 -14 58 -65 -74 68 -16 -64 -27 -20 69 49 25 41 -62 30 11 -59 67 38 -44 43 -37 0
54 44 -38 -40 48 -49 50 -39 14 -42 79 63 -36 -20 -81 -61 71 -32 -77 13 -22 5 -2 45 4 -67 -28 -1 83 -21 -82 73 -65 -29 59 58 76 -72 35 68 7 33 -31 -47 -70 43 -17 37 -9 10 34 3 -12 -24 -86 0
-85 -43 -12 -10 -24 5 -64 57 -73 -31 52 19 -78 36 17 -6 49 -18 -1 -16 -58 59 72 -45 -23 -13 4 -51 54 70 37 -88 40 63 30 -25 -15 71 -80 -9 -26 -84 28 39 -77 11 -62 27 -76 82 -22 -56 75 68 -41 0
-31 -9 -74 -24 -5 60 15 -22 6 52 73 -87 -27 -75 64 20 -13 -53 -25 47 -28 -12 19 -14 -40 -65 1 51 46 -72 -38 68 82 26 88 2 71 42 57 -81 83 -86 62 -16 -44 -67 -59 48 18 -7 -36 -37 33 84 63 0
12 32 -67 -3 -73 -65 25 35 -87 88 49 -27 51 -4 -57 56 75 -68 -83 74 21 19 -43 -79 -72 1 24 20 -29 45 -31 -18 34 -26 9 59 -71 86 22 -2 11 -47 78 -28 53 50 42 -66 -55 -38 -46 -39 58 -23 63 0
88 -80 51 26 19 -12 39 -31 -38 -84 -50 58 -52 -68 -29 27 59 -85 -47 49 36 -65 -55 3 5 -21 -37 86 -83 -18 2 -46 -23 -69 61 30 -8 -44 -74 -48 24 -87 15 63 77 -53 72 6 35 70 -71 28 -60 -34 -16 0
55 -64 -40 60 20 75 -51 -50 22 1 -62 13 -38 45 47 -2 68 58 41 28 -32 -76 85 -10 -77 26 12 -23 -52 66 -84 11 18 -73 -63 87 42 61 54 -8 17 -14 -81 86 -37 -80 -82 -53 -78 -15 -25 -65 -36 29 -3 0
-51 3 -5 28 82 -30 7 65 -78 80 57 31 -11 -14 2 49 45 33 52 -55 61 56 -29 18 59 -62 40 -79 -1 -42 64 19 -12 -85 -69 72 43 86 -22 84 -35 -46 -53 81 -50 -13 54 71 73 4 66 -15 -8 -32 44 0
2 71 7 -60 -22 -80 83 81 -33 10 69 63 56 28 -79 -46 -30 -11 -25 24 -65 35 61 23 70 -45 -64 -8 -62 52 20 -17 -32 -88 -75 85 -59 -44 -16 31 68 -50 -36 -53 82 42 51 -86 37 -3 78 87 -74 -15 12 0
2 -12 -5 79 49 77 -44 34 -64 38 -43 62 -50 -81 88 14 -11 -24 28 -51 8 4 70 17 -59 -20 -9 68 13 -48 -86 66 -78 58 69 -27 46 71 45 -6 -74 -76 -33 85 -26 7 -63 29 55 -40 -19 16 -73 -41 22 0
-74 -25 -36 16 -8 83 -19 58 -11 -62 -29 -18 34 44 -80 52 43 51 47 76 31 9 -26 1 7 82 -3 -78 -50 63 60 15 -69 53 -49 86 2 -68 -23 -46 -67 -84 -41 87 73 24 56 79 64 14 -33 27 28 -59 6 0
66 -86 -62 -41 -32 -9 79 43 -69 -6 78 24 -37 17 3 31 48 -13 45 -77 -44 -20 16 18 75 -2 -36 67 -1 -26 60 -59 73 83 -57 49 50 42 -54 29 88 55 -53 19 -27 -81 56 -80 -74 -35 -82 21 -33 -63 47 0
69 -46 -10 72 79 87 -62 57 51 -75 7 4 -39 74 60 88 -85 -5 -1 -84 14 81 -52 -67 -50 -59 76 49 71 -47 65 -70 73 -16 68 19 2 -82 -48 -25 23 -38 -86 -64 13 -58 42 -30 54 26 -27 -3 21 -56 -9 0
14 -42 26 86 71 34 33 -65 15 -40 -78 -57 81 -28 -11 88 -19 73 -59 54 -5 13 30 -47 -23 74 46 51 -62 -27 48 16 61 8 31 20 -41 -72 -4 49 3 25 -84 -37 -36 83 32 56 -12 44 -17 68 -10 87 9 0
44 24 10 5 87 -1 -9 70 -16 -65 80 -18 58 -30 77 -76 -50 -88 4 -75 -56 29 64 -31 -40 -61 -33 -27 25 35 -66 -42 12 47 83 81 -55 26 60 -85 7 48 73 -2 71 23 63 38 46 3 -14 -62 -84 36 -43 0
-10 -4 16 -56 -45 52 -72 8 22 -5 47 40 -57 -70 -12 -43 55 66 -7 -79 28 -17 -21 61 63 42 -74 64 25 65 26 19 62 48 -13 9 87 33 86 36 -29 -75 -83 84 -67 18 15 77 31 -30 76 -59 -54 -73 -78 0
87 47 -53 -11 68 14 38 -39 21 44 55 16 31 20 75 -67 -76 -83 -35 30 -81 37 46 29 52 62 -56 64 77 57 -66 -36 34 -51 -60 -10 -80 -8 -88 -26 82 40 6 61 -9 -1 15 4 24 3 -78 7 79 -28 69 0
31 64 5 -32 60 68 4 -44 22 80 -59 -85 47 67 -78 -37 -58 -45 -86 -16 8 66 29 -23 -11 -65 -1 42 -26 -53 -18 -40 -62 -39 76 79 -6 43 -75 -70 -12 -2 -51 -82 -27 -41 38 14 88 55 56 25 -84 -30 35 0
-6 27 4 -73 39 26 81 -42 58 -47 41 -46 9 -21 35 -3 37 14 -44 8 -83 17 18 70 -11 71 49 77 -50 22 69 88 30 -13 -28 -54 -19 -57 -23 86 -15 20 55 45 -66 -40 -59 -75 -43 12 87 76 1 -67 52 0
79 -85 20 -32 -64 -86 13 10 -88 15 -42 83 2 -28 26 -5 69 -35 54 11 -56 7 68 16 -17 63 -8 -48 -49 -62 65 -55 72 -14 44 -37 77 29 -43 -25 -53 41 -76 24 57 -50 -84 6 58 82 74 22 -9 67 39 0
-71 30 -15 50 -34 -75 45 83 5 47 -46 17 -4 44 -10 -37 87 -25 -49 79 -53 -22 -52 32 27 48 -62 73 -1 -24 65 36 57 82 63 -67 18 8 -19 33 -6 -21 51 61 42 -7 81 -56 26 86 66 -59 -58 38 39 0
-82 -8 -33 46 -21 -7 52 -44 -77 -88 9 -18 60 -59 -40 -49 53 54 35 -65 15 -39 12 14 -1 -38 11 -69 -10 73 -2 67 27 -4 78 -34 -20 -64 68 29 28 -3 19 -13 51 81 86 42 -61 -57 70 -76 -50 -63 41 0
53 9 17 20 -80 -32 -77 -64 15 35 -8 -55 52 -73 -48 -5 54 -70 6 76 34 -51 58 40 72 67 42 -44 23 62 -43 -19 -57 -11 59 -47 68 -78 3 -4 63 -46 -81 88 -38 71 -24 -30 37 50 16 26 -60 25 -22 0
8 24 48 -62 -43 65 75 9 -51 -76 -41 -14 40 18 25 88 -1 78 70 26 52 -45 64 -28 -66 -11 73 36 -71 -13 -53 67 4 -77 6 -47 -39 -17 -15 -46 85 -81 23 -12 -87 68 7 -55 -32 -49 -22 -69 50 63 10 0
-80 -6 74 -9 -42 37 34 -68 15 -23 51 66 49 -30 46 39 -43 20 -16 82 -28 1 -58 57 -55 81 -85 76 2 -67 -27 79 75 13 59 -14 60 71 -33 12 -5 3 25 86 87 -32 -73 -24 45 -41 -4 -83 36 88 -11 0
2 72 -79 -46 20 7 42 31 -52 -21 -37 3 23 -60 69 68 49 71 78 73 39 27 62 44 29 -51 67 -4 -53 14 -65 59 26 1 77 76 -43 6 41 74 -33 -50 25 -12 -35 -18 -86 88 -54 -17 -15 48 85 57 -10 0
-35 25 42 -13 79 86 -37 -41 -18 74 33 -40 -77 -30 19 2 -3 -82 50 -56 -23 85 -5 -76 21 53 10 -78 55 73 61 48 27 52 9 -8 29 -57 63 58 -66 71 36 22 -26 46 -88 -44 -69 28 -31 72 -4 -65 47 0
-82 -74 -28 86 84 -29 -68 71 63 -36 5 8 -32 -49 -85 65 4 -45 59 34 -48 41 -79 -83 47 -87 9 -60 11 64 -44 39 37 55 -62 38 20 -21 23 18 -10 35 78 -17 25 42 54 14 75 73 -27 66 52 31 -72 0
-26 1 -13 16 50 34 -28 73 15 71 41 39 84 51 37 -74 -10 31 -20 -9 4 67 -70 55 -45 -88 47 -80 62 59 -76 -22 -35 -65 77 63 19 54 18 3 53 -68 57 14 -82 81 -24 44 -33 -43 -5 -46 17 40 38 0
41 8 -87 -16 -75 58 -15 21 19 -25 65 -11 44 -84 1 10 -34 -23 82 38 55 18 77 62 -47 -70 7 36 -30 12 13 26 45 -29 53 33 -37 -86 35 -68 3 5 83 -14 -27 -80 4 -49 -81 -76 -67 17 -78 50 2 0
-79 51 -31 -77 -24 -45 38 -14 13 -16 -26 -71 12 -54 43 56 49 -80 7 15 82 69 -70 35 -44 33 6 -34 74 -73 -11 -21 67 -37 -83 42 52 -40 -46 -48 -86 -3 72 -50 -2 -17 61 -5 66 -25 18 -60 -8 47 55 0
-24 -88 81 43 -64 69 63 38 -67 -11 71 34 -47 -35 74 -85 8 48 -62 -77 -58 -65 -51 -41 -13 50 56 -80 -15 36 -55 -31 -68 19 -82 2 87 -83 -37 -5 -21 -49 -14 23 -54 -16 9 75 -53 39 -4 -78 -72 -32 45 0
-40 59 -70 66 38 -84 30 -85 25 -43 19 83 72 52 -44 -36 -22 24 -48 16 -14 -12 -7 64 20 -29 75 2 -31 82 88 58 42 32 -79 -28 -5 51 -34 49 -63 47 10 71 56 77 -74 -18 81 33 53 15 6 65 23 0
14 -78 30 -49 39 88 -21 -1 52 43 38 -57 -62 83 -87 23 48 76 -22 -31 -26 16 73 67 -17 45 10 15 84 36 -50 -72 19 42 -27 -6 -37 -55 -9 -29 -82 18 -7 77 -5 -74 -46 -13 79 -64 -12 11 70 71 -65 0
-6 51 27 -54 40 4 18 85 86 19 82 17 25 73 55 66 -53 47 12 68 -7 -69 -75 83 -20 35 -31 33 15 29 -42 -37 -41 56 -76 -32 -3 -79 16 -23 -11 30 -13 2 -5 22 -52 -88 77 38 48 -50 59 -64 -72 0
30 81 -84 -5 -61 11 -26 86 70 -38 -2 -66 19 12 39 -28 -55 50 -10 -20 -6 14 80 56 -79 18 29 87 -31 21 -88 -59 -63 75 9 -8 -43 -54 27 -78 53 42 -51 1 -68 -32 34 -83 -45 73 -67 76 47 16 25 0
3 14 34 -48 69 -35 -66 23 45 30 -32 86 8 -5 -68 47 -60 85 -25 -40 65 -52 -51 17 -27 62 -11 -82 -55 -39 -22 77 -19 -46 10 71 61 -78 73 -81 33 74 -67 -37 16 79 -63 72 -41 -43 1 26 -13 44 59 0
56 -59 -1 -47 84 -28 -39 -42 -16 40 -26 22 -9 -86 35 50 3 23 83 -27 46 71 38 7 66 30 65 -45 58 -76 -52 78 74 88 -37 53 -70 43 -75 67 44 -29 68 -54 31 69 48 80 85 6 61 13 -15 79 19 0
87 -71 60 -58 -7 82 74 47 79 -81 65 -50 78 67 43 -34 -70 88 -5 39 68 -62 -57 -32 61 -27 26 -44 -54 49 -48 -42 4 2 46 41 19 -72 -12 1 -28 66 86 45 85 24 -77 13 -16 -18 -73 55 -8 63 10 0
15 82 -70 -43 -47 -45 64 87 27 -52 -18 -6 75 -20 57 62 34 -68 -1 69 -32 56 -81 -37 86 -42 -78 -40 41 48 -29 39 -44 -88 4 -71 -84 -21 -24 66 17 -54 23 -7 16 19 38 8 -10 -67 25 -60 13 85 80 0
49 44 39 25 14 -82 4 23 41 71 37 57 -56 -34 79 59 86 76 17 -51 -75 69 26 -38 81 -77 -78 64 -22 8 -11 -45 -19 50 83 -68 27 -55 40 31 -36 -60 21 47 -42 -1 30 24 -58 63 -29 -54 -2 -48 -72 0
-43 23 63 26 35 -4 -87 -80 -54 22 88 -14 72 -66 -18 -85 75 86 12 -58 68 3 -41 -44 -52 78 28 -9 -25 -61 82 -51 83 40 15 -69 -67 -19 2 49 -45 60 62 36 42 6 -84 -48 -1 -53 -27 -64 -17 20 -77 0
32 58 8 80 6 68 71 -47 -7 -28 31 64 -86 -66 -44 83 38 -77 26 -18 -70 -79 4 -65 41 25 -56 36 -21 81 -49 30 10 54 74 33 9 24 -61 -45 23 2 20 57 -69 39 85 -62 -76 -35 72 -87 84 29 -60 0
-18 -23 67 -40 70 -72 62 -79 -51 7 -76 -11 -52 34 82 -28 -78 -8 -25 -54 -57 -58 -61 -44 -36 85 45 -12 -16 81 66 83 -2 -47 80 -9 65 -5 -68 -30 43 -32 88 -53 -87 -38 -63 -15 -49 50 -77 73 48 59 -19 0
40 -80 7 71 41 85 29 -82 62 50 13 56 -74 24 -60 70 31 52 -33 -65 16 25 12 77 -15 79 30 -20 -39 -3 -10 53 -86 -87 -34 73 -48 -44 68 -81 -21 57 35 47 -84 28 -83 32 63 -49 54 -26 -1 -4 -88 0
-55 52 3 -58 82 -49 60 42 79 -80 -34 37 -26 29 -75 -15 20 -21 13 24 -22 71 62 65 -41 7 73 -14 -8 53 63 -4 -38 68 28 5 -11 85 -77 84 -25 56 83 23 -30 50 17 81 -64 -76 -66 59 46 -18 -39 0
43 61 6 3 -19 10 14 -67 60 -58 82 -62 18 -50 7 -4 -54 39 -24 71 16 -83 72 74 -78 -87 -86 -81 -79 -17 -73 -65 66 42 -51 88 -35 -25 -30 37 1 -11 46 85 75 -31 -34 -56 76 -13 -47 33 5 20 -41 0
-45 -77 49 38 -82 87 75 -5 -74 -50 85 -69 19 -58 66 -79 -59 -29 -28 -27 -56 -65 32 8 -20 -18 -2 -9 43 -62 -60 31 -46 83 -84 36 35 70 11 71 53 -40 -64 16 -22 68 -23 -41 25 26 -72 63 33 6 -1 0
32 -38 -10 -11 -81 12 52 -66 -7 84 -8 25 -58 -20 70 37 -3 53 55 -42 13 65 -82 -61 -71 40 -47 -15 -76 -9 49 -31 24 45 -1 -85 29 83 -34 -62 -88 79 23 -33 -30 -28 -18 -77 63 78 35 -67 17 -5 60 0
-39 22 -43 -71 -34 83 27 10 -67 -31 -87 50 -64 -69 18 5 -25 -51 -6 -62 2 -60 57 -48 63 52 75 88 -68 77 7 -72 37 -38 -84 79 65 21 -70 61 -81 14 -53 -24 85 11 -73 32 28 86 -19 49 -36 -74 56 0
12 20 -42 -75 62 53 -80 -83 -48 3 -67 -14 -71 -18 -79 2 39 -87 19 11 -21 -36 59 4 76 8 63 66 35 -38 60 82 55 64 37 5 58 34 -16 69 9 26 -77 56 1 52 -45 -25 -30 41 -68 -27 -65 84 23 0
51 -5 -81 -47 -83 -56 -58 -28 -12 -13 42 63 -64 86 -76 6 43 48 53 27 20 46 7 -79 -16 23 -87 41 52 -50 -26 70 21 15 31 -66 -11 55 -75 -80 32 68 -22 57 73 -1 -78 -24 -65 -17 -54 -30 45 -14 -84 0
77 86 28 22 64 12 -44 -56 -45 87 1 60 74 -73 27 57 -33 -65 -2 39 36 69 55 -37 59 35 -15 85 14 63 41 -49 50 54 -16 -5 83 -52 -80 82 9 79 -76 -21 6 88 19 -40 48 13 75 58 -67 18 -47 0
-16 -18 -75 -48 56 66 73 -10 28 76 8 71 -26 25 1 -14 21 -68 -62 -2 85 -20 82 7 88 -42 38 72 78 -13 -37 -67 79 -23 12 74 47 -70 -39 -60 34 36 40 51 19 -69 -86 50 -27 29 53 -81 -17 -57 -64 0
-4 -74 57 -20 21 60 22 -34 2 5 -31 83 10 80 -19 -88 85 78 67 29 1 40 -13 -69 -42 -52 -66 -33 -75 17 -72 25 -27 46 -79 -24 28 56 -49 -3 -37 64 11 61 7 8 70 6 -36 18 51 55 -71 -39 -44 0
34 -75 28 -52 -88 -14 -3 -31 -72 -16 60 38 57 39 81 1 -36 18 -27 -9 -32 -29 56 13 -19 -37 10 -50 47 -15 -5 61 -87 48 -73 -24 43 -12 11 30 68 80 64 -62 -69 -23 44 2 -53 -7 -4 71 65 -74 -26 0
12 47 -79 -20 -62 77 -13 -3 -71 28 87 15 59 -66 25 50 -88 44 -31 -70 -55 -16 -9 49 14 -23 -21 27 80 -45 6 53 57 19 40 -52 -67 -74 11 -84 22 73 10 -56 -81 -7 -32 64 2 8 75 38 -83 -24 -1 0
73 33 62 -79 -27 52 80 55 68 15 81 -23 -9 6 56 39 -51 19 60 -16 -21 -3 64 5 28 34 42 7 75 -63 78 53 77 26 58 66 -88 36 -11 -50 -72 70 22 -87 25 -17 -45 -12 -85 -1 -38 14 69 -46 74 0
68 -61 -55 82 46 -2 -50 -43 -14 -48 84 4 76 47 54 -36 -86 32 52 -15 -11 83 35 23 -78 -88 -30 59 -79 -62 -40 8 28 75 -49 -29 20 44 13 -60 24 51 74 -5 64 -37 7 18 -87 57 -72 81 -16 -1 -38 0
55 -81 -58 -10 -24 67 -87 -8 42 -71 18 -23 56 22 -51 -30 41 45 -38 69 25 43 49 -6 86 77 -72 -26 12 88 68 -28 -79 -46 -39 29 -15 -19 -74 -85 17 -32 60 13 -84 -21 4 -35 66 65 -47 -59 -64 9 -57 0
54 -59 77 37 15 24 -19 -82 -50 12 -21 9 80 -10 -1 -30 40 18 7 74 -34 14 -51 -71 -33 29 -62 17 49 -31 56 27 -32 85 -61 45 -42 -13 88 60 -16 -25 68 70 -48 -23 44 -36 -46 -35 72 -41 -81 -64 -83 0
-43 31 -54 16 -86 -36 12 -6 1 73 76 -48 7 -41 23 -42 -17 80 -3 68 -62 32 14 70 -19 -11 33 20 71 78 -60 61 30 72 55 9 -84 77 -45 -65 -82 -2 -75 -50 -81 21 39 83 40 57 -69 -15 -53 -35 64 0
9 71 6 5 -51 -72 1 -42 -43 -39 -32 -50 -15 3 -45 -16 2 -86 -66 -8 40 69 58 74 44 -56 35 36 80 65 -24 54 -31 -63 -84 28 -14 38 -61 37 -21 68 -12 34 -20 -52 -17 -85 -25 29 27 -64 -41 23 55 0
26 27 -7 -54 79 -74 -61 11 37 -18 36 42 49 25 -53 72 -75 -80 -84 -71 -44 66 63 -19 86 -3 69 57 12 -55 28 -46 -67 -21 -64 -81 82 -9 39 -88 68 -38 1 10 -50 -32 5 35 58 24 -48 -6 47 34 -56 0
58 9 50 70 69 -7 25 67 83 -19 55 -41 26 40 74 -22 -17 36 87 -2 66 -59 -64 -28 85 86 33 16 -1 10 -39 -4 -27 75 42 21 29 -82 18 38 43 -44 65 -53 -35 -68 -79 -54 -73 3 -5 -78 23 -13 56 0
-30 -38 11 -28 -81 22 -57 -29 -2 -64 -1 53 -78 79 -35 62 -39 -88 -69 58 -84 -12 85 33 83 -48 -44 -17 -37 55 -50 21 19 -43 -70 74 -34 82 -77 -60 5 46 13 18 -76 -40 -72 49 73 -52 -4 -14 -10 87 67 0
-23 88 70 -40 59 7 43 -15 38 -61 -60 -39 25 53 -77 -14 48 44 63 2 80 -76 73 -26 79 -4 41 -56 17 42 55 36 -37 -51 -6 57 -13 -8 -3 64 -66 -71 18 -75 1 -46 -52 -78 -31 -21 11 -32 85 -74 -47 0
-41 -68 -29 -59 -64 24 -65 -87 2 47 27 -76 -17 38 45 60 72 -9 11 -10 78 53 -86 -14 3 -71 40 28 5 66 -77 -19 -42 44 32 -26 -37 15 -88 -52 1 -79 33 23 30 -8 -39 70 61 31 -57 36 49 -4 80 0
76 71 -61 -73 -36 27 -34 -3 84 -81 -63 17 -2 -85 8 10 87 -67 -57 82 -80 -4 29 -37 65 28 -5 50 55 45 -26 -12 75 48 44 -59 -42 56 58 -14 -77 24 -69 7 20 68 -62 -86 -1 23 43 38 -88 -35 60 0
-13 57 27 -80 -74 -83 -54 68 -34 37 44 48 -20 -7 29 -52 -87 3 78 12 -26 8 -35 85 -84 -58 -40 14 51 -49 11 -19 -17 9 47 56 6 59 31 -77 -76 -32 86 10 62 33 36 73 50 -38 2 -66 53 75 -4 0
51 -29 4 85 -25 -75 -71 -77 30 -42 -24 69 82 55 -79 -87 43 -73 18 13 88 16 -26 40 9 39 -23 56 57 72 63 34 83 -67 -66 -41 44 28 -8 -17 -22 -31 48 78 -6 -53 5 3 81 -2 -7 52 -50 65 -14 0
-55 21 50 15 27 22 -86 -52 -38 75 29 53 58 -23 83 64 -74 -16 70 80 -26 49 14 31 -78 25 -35 1 44 -39 47 -36 -54 6 -33 45 -4 -37 87 -72 77 7 -69 3 -9 56 -8 -66 18 32 -30 -43 -17 40 24 0
78 59 75 39 66 62 -5 -13 -57 -31 -3 20 -73 65 25 -81 37 88 -83 9 -46 -51 -43 61 84 -23 26 -54 -58 -71 30 -45 36 -32 86 -87 19 -44 -7 -48 8 28 -34 -1 33 42 -76 14 47 -70 -68 10 64 -38 -63 0
27 64 14 60 -87 17 77 15 82 16 -2 -42 11 -26 -39 -69 -54 -49 78 44 1 -88 -48 6 20 84 12 85 -65 59 31 -73 -5 79 53 -67 -71 29 -51 -63 -74 43 -36 -80 33 30 -46 70 32 19 34 62 -22 -57 -41 0
20 70 -16 -34 -38 73 81 55 -37 22 -86 -51 -4 30 -19 53 -29 -80 42 74 48 60 -18 -28 -87 13 -72 26 21 -61 12 -14 -23 3 43 -33 -41 -78 -25 -32 -46 -10 -84 5 -52 -58 -75 -54 -36 -15 -7 77 -83 -64 -11 0
-77 4 20 57 -74 -2 12 82 53 38 -8 46 60 -48 13 -6 -26 23 19 87 51 -62 -68 -49 83 28 39 -30 10 -35 -71 -18 -59 50 22 -33 -64 7 67 -70 -84 54 -80 -76 -32 69 1 -11 -29 58 -66 27 -16 -78 -88 0
28 -7 -76 1 40 -82 -9 -36 65 -74 86 -60 -41 61 58 -83 30 47 39 -42 -73 50 55 6 18 -14 -23 -29 -27 5 -85 -45 54 -63 -37 72 48 -64 -26 -34 35 49 59 -2 51 80 17 79 -12 -66 8 15 -24 -3 84 0
-53 71 51 -42 4 55 8 1 -66 29 23 -69 -54 -7 -45 88 -17 -62 21 75 25 -84 68 76 47 -61 -49 -37 40 -6 -28 -64 35 59 86 10 -34 -12 -73 65 -22 -27 -44 72 24 -63 74 18 11 -79 -41 38 -85 46 -60 0
-75 2 -80 -14 -24 49 79 81 -52 -66 -29 50 51 13 18 -5 -20 16 19 -37 -78 -71 -10 69 34 -26 -33 83 27 -23 47 -15 68 40 44 62 -12 -85 28 76 70 -1 -72 84 22 -41 -38 -6 43 4 -31 67 -25 30 -58 0
73 -47 -84 53 5 -10 -70 -57 56 65 48 80 -59 -2 -37 21 -4 17 50 -44 31 67 13 -36 -29 69 49 -28 -77 -76 -51 -16 33 24 -23 -63 -6 3 -79 41 -35 14 9 39 25 22 -66 71 34 -61 -55 81 54 86 87 0
-63 -21 34 -58 51 19 16 1 -5 53 -84 69 28 -73 -36 -45 -81 57 -79 -26 -86 80 52 -66 -20 -44 10 61 43 49 -38 -68 85 -82 -77 55 -76 6 -39 35 88 -83 67 78 -24 37 -30 74 -40 65 14 -42 -47 -70 23 0
54 -56 -39 -16 1 53 83 78 34 -27 19 23 50 49 9 -6 -82 -33 36 -10 -15 59 79 17 84 -38 -18 67 48 -25 -75 -40 20 71 57 -13 -35 -47 -45 -88 -72 68 -21 -2 -80 -70 -3 -4 64 43 -66 46 62 29 -87 0
7 -12 15 35 -13 52 -41 -78 26 37 -50 40 -63 -59 -24 75 -18 -27 82 30 -43 -67 65 54 20 -6 -36 -73 49 -83 58 -9 -72 85 -19 -80 76 47 -79 -4 66 45 -68 -10 34 -22 -57 -81 60 33 -62 -1 88 70 11 0
30 -80 -70 62 -45 -64 -56 -31 33 -20 71 84 25 -69 29 83 -81 -35 -26 34 -32 79 -17 87 58 66 21 72 -60 -46 -22 11 -85 77 -88 -43 8 27 38 47 -52 42 4 -19 -44 6 -39 53 -5 -9 48 57 74 -41 -51 0
-24 8 -2 57 -88 19 -46 10 -14 45 -26 21 40 -5 -43 -13 17 -29 33 -6 66 -80 -12 52 -37 78 72 71 38 -55 -83 -67 79 -82 25 -41 77 54 -44 -28 -30 -75 64 76 -31 -58 62 48 35 18 -85 -1 -70 -53 -3 0
77 15 47 -74 -36 -58 -83 -82 -35 69 21 -32 62 33 -3 84 -78 -30 -81 -38 87 63 39 23 -73 -55 31 48 7 75 -17 -26 8 -13 10 -27 -49 46 4 -5 -59 -12 -20 -11 -56 -66 50 9 45 -19 40 86 -79 -34 67 0
-48 86 -71 -83 84 15 26 -34 -80 -53 10 1 64 50 -59 -21 -87 -69 -63 23 56 -42 -58 3 43 72 -11 -82 -88 -45 54 -44 49 5 -39 75 -79 -57 9 2 -29 -62 -77 -41 -55 61 4 -66 73 -13 52 -20 -14 12 -78 0
7 58 51 42 -83 -33 26 84 15 -55 4 60 -78 -46 -56 32 10 87 -47 53 -71 8 65 -63 54 17 -50 -81 45 -80 -30 -1 -34 3 82 -20 38 -35 -2 -67 -59 66 -18 21 -74 37 -39 62 5 -29 -40 79 -75 -24 -88 0
1 24 -45 -37 10 -19 67 17 -77 3 -9 15 -27 60 -40 -23 -68 -35 -61 63 -8 72 56 -52 18 -84 -81 -82 49 -80 88 -58 20 -57 -83 48 -6 -30 -86 -21 -4 38 59 -32 25 -41 87 28 85 47 65 62 -71 26 -39 0
80 -57 52 -17 -38 34 56 42 77 -6 9 -50 29 -7 -47 -65 76 -35 -66 -3 53 74 -33 72 11 -81 30 75 86 -67 45 39 -37 54 -87 40 48 13 -8 10 -25 20 -85 44 -69 61 -18 71 36 16 31 -59 -84 -68 1 0
8 -17 70 -45 -75 -81 -59 36 10 -4 -87 34 72 31 47 80 -37 -83 9 50 -13 68 -22 82 -79 5 -18 -51 71 41 -30 -32 54 7 -49 73 -20 65 -29 -56 76 -23 -19 85 63 -77 -48 -12 -64 35 -6 -27 -14 86 -69 0
-38 -36 58 -63 55 69 21 5 18 -6 -44 57 56 87 -31 80 -64 -9 -62 -37 86 -40 -45 -75 -52 -76 14 1 84 -77 41 72 68 -73 -48 -46 -61 -30 33 71 65 11 -16 -28 17 -12 -23 -60 -47 -59 53 7 70 39 -82 0
-15 -62 -1 5 -4 3 -49 -87 73 -17 -21 68 -47 -38 59 -57 -51 -54 72 -29 -77 -61 22 85 39 -28 -2 -88 -56 23 -11 -27 -36 43 -33 -48 -45 -75 -63 -60 -19 -53 24 7 12 -8 66 41 81 -13 -14 -32 -79 70 16 0
-47 23 -59 -75 18 45 86 -55 -78 -46 33 -16 -87 57 40 48 34 29 -36 73 44 -32 -51 -88 -1 71 79 -54 66 2 -56 -8 70 -41 -49 -12 24 80 67 -10 -74 27 -38 -50 77 20 -9 52 -3 83 63 -6 26 72 -5 0
-49 -22 47 40 -54 73 -65 24 -70 -79 -74 61 83 -19 18 -8 -81 78 13 -43 -12 82 -46 -10 21 27 -86 -67 41 39 7 77 55 66 35 76 -75 51 85 36 1 -59 15 38 -71 -2 5 -88 9 -58 45 -57 -44 62 63 0
61 -20 -48 -54 56 45 88 -10 -16 87 -22 -24 32 80 -78 35 84 -82 -58 -33 -29 -71 -75 36 -8 5 46 -77 -50 31 -2 -72 63 68 14 57 -65 -6 21 -34 9 -76 -12 -52 -40 30 -13 4 47 -53 15 -11 74 66 -28 0
-86 -57 34 -61 -46 38 -8 30 52 15 -7 -28 33 -56 -65 36 67 25 -79 71 -66 37 5 40 16 47 74 -9 -82 -11 -24 83 -58 53 17 -20 60 -27 41 -31 29 -73 -72 -23 -84 70 69 -85 -39 26 -18 62 -21 43 -88 0
50 44 75 -34 -18 -70 -78 69 12 48 -76 -56 -41 20 17 -65 -83 25 -54 -22 9 -61 15 58 -51 -11 -81 -45 16 40 -46 49 26 -1 -28 -86 53 -66 -73 6 4 39 71 62 68 -13 57 -67 55 33 36 29 80 -2 -8 0
-12 54 33 -76 -65 -31 39 8 75 -66 -49 -37 -63 -32 -17 -56 36 21 1 -71 -48 -47 -87 -34 -78 -73 -13 -55 -81 -88 -58 -24 5 83 80 15 74 86 45 -41 -23 6 -18 -68 -28 38 -3 85 -29 -51 43 -19 9 14 -77 0
72 -46 -42 -35 73 -5 -24 68 -71 76 85 -59 80 -30 -28 29 -4 55 -63 43 40 -75 65 26 -79 15 21 -54 11 -6 38 17 51 -18 -14 -66 -9 10 70 -1 -57 25 49 -39 27 -48 41 -2 -45 32 60 62 13 -3 22 0
-9 34 -39 80 62 -64 66 16 -43 -21 -46 73 -56 86 -19 52 -77 -61 29 54 7 -6 48 -14 -32 79 -87 74 -81 47 17 -41 -37 -33 -65 27 -31 -88 -23 -55 -84 70 60 -10 20 28 -83 -85 -24 45 -15 -38 63 12 71 0
48 -1 83 3 -39 21 51 33 -47 -11 -25 -64 7 -58 24 -15 26 18 37 23 6 42 72 -9 -66 -12 82 -76 -75 45 79 84 -5 -17 -65 -46 85 -20 -40 36 16 -62 32 4 86 -2 30 -22 35 -29 81 -19 10 -50 80 0
-86 -6 17 27 62 52 70 56 -28 31 -53 49 -40 19 69 -21 47 36 38 -25 58 55 -57 -76 -61 -79 12 -71 50 -30 -35 -4 -77 48 -5 -8 -67 -81 9 20 39 7 -1 43 -22 -82 -83 72 -10 -87 42 23 3 68 -75 0
-16 -86 -35 -33 24 81 -66 82 74 14 85 -55 -15 6 23 12 21 47 -32 -30 -4 76 8 -88 -42 41 -50 -37 -70 -72 19 -10 83 31 -48 -62 -46 -78 -61 -18 -20 -36 -39 -75 -77 45 -56 -67 29 43 58 57 -79 2 -28 0
-2 70 55 52 -14 7 -5 -57 73 -77 -74 45 -6 75 -47 83 82 22 26 66 -56 33 50 42 -39 -17 -25 -85 78 80 -71 87 8 64 -76 -51 -29 67 -37 -41 24 -58 -60 32 69 -21 13 30 19 -63 40 27 61 3 53 0
9 82 77 -14 -37 83 -59 -76 -86 17 47 -18 -23 -74 48 -10 -44 32 54 -85 -13 79 75 -43 84 30 -36 -16 38 39 64 56 78 12 4 -55 -15 -67 28 -31 71 -29 24 50 33 -7 -8 69 -2 11 -6 34 -27 -5 -87 0
-32 -72 13 -87 76 31 -16 -38 -78 -44 29 -61 74 20 -7 41 54 -77 -53 -30 73 34 -18 25 -51 -46 67 -70 82 -81 59 -37 63 52 17 -75 -85 24 -3 -39 -4 -43 -12 47 10 -14 64 62 56 -9 -50 -23 -66 5 40 0
-47 -5 -60 85 22 -78 67 51 -4 17 -70 -16 54 -43 -37 -52 -32 33 2 -10 69 -63 -49 -40 44 -13 30 83 -50 -1 12 14 -45 -15 -48 84 -86 26 36 -53 74 6 -42 73 -68 11 -57 64 -82 -31 25 -75 62 58 -87 0
60 -23 31 49 22 71 -72 76 4 17 38 58 -70 64 -35 -47 48 67 56 51 75 -6 -34 -62 -8 43 -32 3 -88 45 -26 65 -39 -83 2 -55 -27 28 33 87 30 -74 40 -53 19 -80 24 84 -63 44 -10 -54 16 -9 7 0
35 40 44 84 24 -77 -87 38 -72 34 67 -76 -9 -49 -63 39 17 -59 74 30 -68 56 85 26 -27 -28 -79 75 66 58 -23 -11 29 82 -60 10 -61 -45 62 37 -4 54 -43 -73 16 -70 -69 -52 -81 -15 86 57 36 20 -7 0
-74 -23 47 83 -11 46 -72 -7 -86 -14 4 88 79 -25 -8 -20 -53 -38 76 -75 73 -50 42 56 33 21 -2 35 1 -28 70 84 -82 48 37 67 78 -15 65 16 -31 43 -51 34 -19 -66 -40 -13 -55 61 -64 58 24 -77 -32 0
18 73 5 65 -87 -11 57 63 46 4 -15 -70 -14 -86 -75 -54 -84 22 35 44 -53 -59 -48 78 -27 -7 30 -21 -17 33 -56 -45 40 -20 81 -88 16 -28 77 -51 39 -31 71 55 -12 -62 -13 -23 -79 9 -1 49 -32 68 -41 0
-84 79 -50 3 44 54 58 88 -64 43 70 32 1 42 -65 22 -81 -78 -5 45 23 2 85 48 -57 72 73 39 12 16 -15 29 -21 -59 8 41 -20 -33 -66 -80 55 -30 76 37 67 -86 36 62 63 49 9 24 60 -82 77 0
-10 -83 -44 -6 -60 32 -11 31 24 -23 54 47 36 -61 -82 -39 84 -8 -20 -58 62 53 -73 49 68 -28 -27 -43 -35 -46 -14 45 -5 -67 -55 42 50 85 1 -9 78 -87 -38 65 2 -41 -66 -79 71 29 -48 16 22 86 64 0
42 -65 -9 37 -22 24 -1 67 84 38 -54 -23 34 87 -2 -75 -40 -36 -4 72 43 46 -85 -68 -41 -48 -13 -16 69 -59 17 58 -77 11 64 -45 49 57 -27 -15 79 55 -71 44 -70 35 28 88 62 51 76 -63 52 29 60 0
80 36 -77 -21 -40 -12 -43 47 75 -26 -28 -9 15 59 -60 -13 24 -38 51 10 46 62 -85 57 20 -65 54 -55 -88 -39 -19 -67 -2 73 7 -41 -52 -69 -53 71 -86 -79 16 27 84 68 -17 -14 33 50 -87 23 -61 1 18 0
-12 -29 -30 -56 5 79 -74 -28 20 -50 1 -34 -31 -27 69 -38 17 88 -35 -72 55 75 44 -77 -14 -49 80 85 -61 -60 -3 -15 -40 68 -41 52 -83 62 26 24 82 53 48 33 6 19 54 -63 -13 10 45 16 -36 -87 -57 0
-37 41 -70 -5 -26 -48 -36 -27 4 22 -11 8 -50 34 -40 73 3 18 68 9 47 -64 56 -14 -13 21 -7 43 78 54 60 -88 -58 -74 79 23 -35 6 76 -19 -46 32 -39 65 -55 -49 20 62 -71 -44 -86 52 -57 53 -25 0
37 18 52 -68 -53 46 -62 -48 -11 38 -31 20 -55 39 -33 3 -88 -1 34 84 -57 28 51 -60 22 -25 83 -35 -21 45 14 -5 43 70 65 -66 58 73 -76 50 64 40 -13 61 71 72 -77 27 54 -7 -15 -67 56 -47 -59 0
-81 13 43 74 52 -79 -36 -4 -69 -75 88 62 -33 -15 -17 -32 -66 -57 28 -71 -73 -10 -78 58 -70 -72 -48 -22 -54 -82 -86 87 84 68 55 30 7 -38 -64 65 24 -41 51 8 -85 61 44 -16 -2 -47 -23 -76 5 40 -35 0
78 43 53 -69 1 4 -83 12 -29 57 2 -8 -45 -51 -77 -66 -13 16 14 -50 20 -67 -7 -31 -38 -75 11 -36 -5 -44 -70 3 -32 24 -39 17 -54 -63 27 -88 -62 9 -81 -58 85 30 -71 -19 -56 37 -22 68 33 15 -84 0
20 -50 -67 78 -75 -10 68 37 41 -46 -83 16 59 81 -17 39 -23 -3 13 -40 -52 -56 -82 -86 87 -12 45 71 -47 -35 -77 -28 -73 74 49 -57 -55 22 -30 72 -48 25 -84 -79 33 -36 42 69 -7 18 -53 66 88 -62 -70 0
47 -20 -85 66 39 -16 -42 -59 69 -83 -88 77 -23 31 3 84 -45 -4 -49 51 1 -15 10 -48 18 70 61 25 -60 -35 76 -46 87 50 -64 -24 57 -79 -81 80 52 -26 14 37 -7 -33 65 -40 -71 29 -6 54 34 -11 13 0
-72 -34 -45 -52 -27 -73 47 35 69 5 -38 3 62 -8 60 43 -83 -88 23 -40 -18 -50 -58 -6 74 -31 -49 2 67 -70 4 -1 36 51 -71 -86 -80 59 -75 -25 -26 81 19 44 -77 33 -54 64 53 84 14 -15 22 -82 37 0
-49 -37 12 74 -43 88 73 45 -31 4 71 -16 -23 -42 -25 54 -6 32 52 29 -2 39 40 84 48 -63 -41 -64 -53 78 35 22 14 -33 13 -69 61 15 67 5 26 56 46 -55 -19 -83 65 -3 59 68 36 72 11 62 -70 0
34 -36 -54 68 41 80 30 -58 75 -29 33 -52 -25 -7 18 63 8 -56 31 46 -69 -53 39 -21 57 74 -38 -1 -27 19 6 65 -43 -84 77 -9 -28 45 -13 35 -78 -4 -23 -12 -26 -14 62 20 -85 -86 -60 -2 83 -67 -82 0
-59 85 37 65 -80 87 -8 77 39 -54 -32 -71 -67 73 23 15 42 84 -21 -82 -48 -34 -10 -78 -68 -2 75 -12 40 -43 -9 83 -51 33 52 60 46 -38 44 74 -20 -29 -18 -88 11 26 4 3 1 36 49 31 -13 53 50 0
-48 82 31 42 1 -59 -49 -30 -25 -62 -79 -69 -54 73 71 40 -13 -56 -57 43 7 8 -84 74 -60 33 -20 -55 88 -76 26 -34 -50 -21 -58 36 -64 -18 77 -52 -68 37 -19 -61 10 -11 -23 -67 87 -41 53 14 -2 -6 80 0
59 -85 34 -19 -56 -88 -31 37 -57 -16 87 55 77 35 40 -65 -33 -22 -75 -26 86 23 -5 28 -42 -52 32 -25 36 -43 41 -80 -8 30 67 -13 54 60 -53 27 -69 -70 12 61 -79 83 -48 -81 74 -46 -39 -71 51 44 -3 0
-74 40 -65 -43 -78 -37 85 -51 -20 66 44 -11 31 30 -68 83 -54 -23 58 2 -8 17 -28 77 -59 -25 -49 21 36 -47 7 88 6 -33 -3 -34 -1 41 -80 -67 -62 -12 -81 24 -9 -46 -26 56 27 70 4 -29 60 -64 -71 0
56 -88 -62 -2 -49 -71 -75 50 -42 18 55 35 84 -78 -73 -58 11 -17 -74 -37 -19 7 -41 -28 -48 -46 -13 16 67 80 64 52 61 -70 27 -32 34 -44 -22 -10 76 -69 -29 24 -9 -5 -87 86 -63 -15 23 -3 33 -65 -72 0
-45 -32 -51 -69 4 73 -23 76 -55 14 -35 -74 39 8 -41 50 -20 29 -43 68 56 -11 24 25 28 64 -82 -75 -77 -46 6 80 57 -42 17 66 -27 -63 -16 60 -58 13 47 -12 52 -83 -37 85 -79 -88 -44 26 -65 22 36 0
-9 -47 -35 -7 -52 18 14 55 -85 33 -72 -10 -17 -86 -59 -34 -60 -3 66 -41 -45 65 -16 -68 -20 -29 -1 -69 80 78 82 -53 -2 -32 -12 73 -88 70 8 -57 -61 51 76 58 11 36 5 40 46 -81 -13 -4 62 26 48 0
-87 -48 -16 -43 -82 -3 45 -80 34 60 -64 -35 6 -61 31 62 -25 -57 1 -36 -18 -54 -26 30 -7 -58 9 -76 41 33 63 59 88 -50 -73 46 -65 49 69 -28 22 71 -29 -12 -37 20 55 -84 51 21 -47 -83 -44 -2 38 0
4 -68 -72 69 61 20 -37 11 31 -8 -52 17 -65 76 -59 -50 -24 79 18 -54 -27 -75 -33 25 -13 -29 45 -32 -48 -46 80 39 64 -34 62 -77 -22 60 -38 58 49 -30 -6 78 -55 -86 -26 12 53 5 9 -63 35 66 -10 0
-61 -75 38 55 -3 46 -27 -79 -39 52 -85 -48 -34 -14 -23 -84 69 -83 59 51 41 71 56 -57 -4 -15 63 12 58 -88 13 40 -43 -32 -18 -53 -6 74 19 -29 16 66 -86 -31 24 2 -76 5 73 80 70 68 -49 20 1 0
24 52 -22 39 47 60 48 2 -11 -7 38 49 -34 -23 -76 -3 86 -51 -59 -79 75 -78 -6 66 -5 18 83 -17 55 58 27 69 -4 46 -41 -15 56 85 -70 -54 14 67 -16 61 -80 40 -82 -72 -35 -28 -10 -32 -21 43 -36 0
25 76 -8 67 -56 -4 19 -87 50 -47 -57 -85 70 36 51 -79 -86 81 88 -66 -45 55 29 -12 71 -3 -27 -2 61 -58 41 -18 9 -33 -16 15 -30 -65 43 38 -62 -24 54 -78 -6 28 -44 31 -73 39 46 1 34 20 84 0
78 -14 37 7 -16 -11 61 53 -9 28 -31 54 -39 -42 -49 -6 60 -79 -20 27 -10 -52 75 -19 -44 -85 -22 74 -55 67 81 69 51 57 33 -87 83 -17 38 -72 5 -77 2 -41 86 -30 -18 29 34 68 -63 24 59 84 35 0
46 31 53 49 55 77 17 -34 -37 -14 -22 80 -29 19 -83 -23 -50 -73 88 13 -78 -27 64 28 -87 69 60 -5 -72 21 59 63 -45 -25 41 -18 36 61 9 86 -32 -57 -30 -79 -15 -66 -12 71 -67 81 44 10 -85 20 7 0
-55 15 -86 -28 -52 6 -65 -66 -69 -9 16 22 37 19 1 59 -82 40 47 73 -88 17 67 13 21 -27 -38 -51 4 -76 43 70 -58 -61 -29 -39 -10 54 -20 -83 25 -44 -33 -2 57 87 -31 62 72 -60 80 -5 53 -12 -81 0
-42 -84 -15 62 37 48 -65 -11 31 -72 43 -1 -30 20 81 -69 53 -52 -88 -56 7 -47 -27 -40 -78 35 -58 50 -12 26 -79 18 -49 -85 14 4 -55 -74 33 29 68 -83 -60 23 -73 66 3 -2 -87 34 -45 46 21 75 24 0
-28 -69 7 79 77 -78 45 68 61 -29 -5 -30 17 -48 -56 21 -23 -54 88 -73 67 -11 -52 -59 -55 12 8 84 15 86 26 51 32 2 -1 -75 -81 35 -57 63 6 -36 -33 22 -85 -60 -46 -80 83 62 39 72 10 -44 13 0
66 55 -35 -23 -14 82 -30 16 56 -15 18 -81 52 -3 -80 -71 59 -46 -73 79 -19 -43 -77 -57 67 21 31 -39 -11 -2 -68 -74 -61 49 34 53 76 50 47 -42 -17 -7 -26 72 62 40 88 84 -63 64 44 -85 51 22 87 0
