c Random CNF formula
p cnf 500 30
171 -306 73 474 400 343 -159 101 -85 -269 -442 -209 485 106 -77 -261 -277 473 95 -353 340 -426 -303 34 165 55 -500 52 374 -490 421 266 -472 -139 -121 -226 453 -268 -67 -420 424 -278 -342 216 458 -373 54 229 239 -483 146 -459 -454 18 -38 290 265 370 439 210 -200 -109 129 12 130 141 496 -497 385 -154 -341 125 -270 448 -177 -123 406 -140 7 -168 91 162 26 126 131 -362 -482 102 -71 -83 44 251 -161 -48 488 311 -66 -449 -254 -255 0
-340 -67 -471 90 -38 2 -188 -386 -98 4 243 -271 -35 282 339 -293 -219 -205 -118 -161 -419 241 122 -32 166 402 -106 168 347 -408 -307 45 -13 -490 50 -180 -444 341 -398 357 -358 -285 -36 -306 -17 -93 -9 -314 374 -309 191 -481 -478 115 359 47 329 44 -173 62 -439 229 414 -492 194 -28 424 -269 -189 -364 263 498 -184 -430 193 -91 30 -109 158 391 -152 -273 254 248 -349 -274 171 457 -79 -123 310 -128 198 -302 74 496 -61 467 64 305 0
-226 428 -23 289 20 -65 436 111 475 -153 81 -473 480 -112 -468 -60 99 -256 140 -72 -125 476 213 114 267 260 165 -3 337 -487 148 -342 55 -281 39 -136 -460 103 228 483 90 497 178 -490 -171 323 404 311 -221 -28 263 -207 -115 34 -423 -6 -170 393 -388 -172 432 116 -176 -310 -402 88 154 391 -456 -46 -15 -245 -346 212 -273 -279 -240 -4 459 -390 478 -56 -91 440 42 -67 -285 259 26 354 495 233 385 -367 195 -18 93 -284 21 -361 0
367 385 -306 209 -493 490 -254 -471 299 -255 215 430 -259 374 22 248 67 171 324 -107 35 475 268 -447 4 322 -323 -294 491 19 118 -125 431 400 -336 492 -205 469 93 -312 -453 -92 425 18 59 461 -271 -329 27 386 -427 -459 47 286 -160 -437 -404 84 -210 398 314 -158 355 -370 26 94 -238 472 -408 -456 270 230 283 -179 -151 -30 110 -31 448 -428 -232 154 -444 163 -25 -317 168 -3 -32 -223 -206 340 -83 389 -381 165 460 405 201 -62 0
-105 128 -307 186 -153 291 247 -389 455 476 250 -104 191 -151 -132 -417 -21 -318 215 167 129 209 -13 37 -432 409 236 -147 59 -292 -464 -156 354 64 272 178 -214 -133 -152 -230 -106 -172 -71 462 -139 140 50 203 119 -43 270 294 180 332 -442 204 20 436 96 -449 174 4 394 -287 273 285 428 356 295 -268 -351 393 -137 138 113 255 -412 -47 39 -386 -379 -361 -101 46 357 -282 194 461 190 -304 457 -418 15 375 -353 -3 218 183 -452 -87 0
452 -474 -305 457 -262 471 -473 445 -368 -50 192 -381 296 -235 -162 -129 96 -297 484 37 236 -273 242 -312 453 -57 102 284 -121 112 426 -182 -447 -191 154 -36 -47 -10 -143 196 -171 98 207 172 141 -455 -92 -174 325 181 399 60 -222 238 -267 -105 398 495 412 -306 221 -311 -127 -274 436 -226 -214 -355 369 -31 122 107 28 341 -400 -56 246 -485 -140 14 180 -252 -69 -32 -340 -365 40 147 -422 -411 256 -197 -201 233 350 390 -438 -358 -166 17 0
133 -394 224 -235 424 190 -384 -315 -143 343 -85 4 -313 -45 -364 -301 240 -373 229 114 316 184 21 458 -19 161 289 -249 -393 -91 -287 -132 -341 412 -324 -236 -295 167 332 71 443 314 -157 497 -307 -484 493 -226 433 214 -15 -387 371 -286 305 252 -362 219 168 -292 -11 260 -425 340 -108 457 -146 331 -294 392 -41 -195 -283 72 -68 368 202 415 447 140 242 -16 -465 -107 -8 -459 -20 280 -358 -441 -336 245 -320 366 297 -56 -130 328 -102 -268 0
26 49 51 152 -2 347 344 -95 432 173 439 -143 75 -129 136 57 -471 135 157 159 218 -306 -47 -486 50 -102 251 -82 -174 -379 365 -261 410 -321 446 -366 52 -105 335 -422 289 -475 436 88 288 -84 -198 -276 388 -145 -27 100 233 -404 334 172 277 -272 -97 245 -67 -85 -30 481 178 350 -254 451 -424 38 18 265 170 -11 -247 342 -183 -396 -406 168 -144 -441 -488 283 -81 148 398 -322 -194 -96 319 -99 -242 -348 28 250 377 -309 -155 440 0
499 -427 406 -159 316 320 -184 45 249 440 -36 296 -287 213 -373 -52 -138 113 -339 -451 450 -412 -254 -46 69 -89 455 -328 56 179 -463 111 333 32 -291 120 -276 -392 -325 -130 -93 152 489 -176 -49 142 80 414 -228 -198 -384 -303 424 -465 207 381 -273 -166 74 -256 37 308 409 -467 -39 -482 -307 196 -4 428 461 165 -372 383 -95 135 156 -59 64 -480 -202 -19 -1 419 16 468 437 119 398 -125 -42 -170 -20 -322 -185 54 294 371 255 236 0
-198 383 -493 472 -146 -145 421 -154 9 102 -209 -381 183 -160 241 -165 30 -316 -64 13 -309 296 497 -326 401 -206 -293 -225 -172 139 -468 83 -305 414 -114 -451 409 -58 -312 79 -86 390 150 -25 222 119 -134 -126 228 -446 361 404 344 15 -82 418 68 245 240 -415 221 -402 -288 -483 -454 434 -340 34 -300 375 3 -479 -335 -60 -388 -11 130 -233 385 179 357 -295 368 27 194 -315 -89 -466 -192 -17 -164 283 -460 -162 117 269 474 289 -7 2 0
-174 -489 453 -198 146 -303 104 -19 219 260 -386 -269 332 -428 344 469 266 -324 -296 -6 -305 -304 -150 -496 459 -235 377 -48 -486 -406 -61 -9 290 310 24 185 -320 -173 -49 278 -188 -467 18 299 302 -226 -307 354 177 -129 369 294 431 -436 73 -403 -270 366 342 -207 -493 33 300 -231 89 264 -164 -124 117 -328 121 347 87 379 -66 27 411 475 29 68 -409 -138 420 -161 -216 442 212 -363 274 136 -214 -477 -390 -116 -158 152 111 209 287 292 0
-469 488 -386 -145 -27 426 -217 -26 -329 -282 409 -380 -318 50 41 484 171 -376 463 137 75 -138 -496 3 280 -119 -95 -434 -383 490 499 397 391 284 273 76 -34 -71 458 30 185 -35 -188 229 117 -93 49 -160 215 61 -486 125 103 154 -39 247 364 -48 -360 455 169 467 437 -449 -33 -327 354 -11 424 269 -487 -396 -317 -99 -116 -227 480 -58 92 259 150 193 165 500 213 -462 -312 25 70 -235 384 212 -339 -300 308 12 -86 -337 57 -324 0
32 -429 -25 387 -220 219 114 -115 30 451 -433 -59 -440 195 157 -176 -305 184 -330 149 178 90 33 -212 380 -165 362 -361 256 173 68 224 -402 244 82 -106 -52 43 350 -445 3 -127 -46 425 303 437 63 355 -118 -481 -497 448 -411 -133 135 -480 5 -416 -353 189 -493 6 -315 -316 -462 -483 113 -51 -392 -495 100 -142 284 -391 40 -252 237 83 261 211 -319 -283 48 334 439 -464 55 175 16 -312 -406 -255 -76 499 -60 107 -196 120 394 152 0
72 -178 -424 -40 -322 489 368 -324 97 -290 274 414 445 -12 478 -406 -162 129 -94 479 315 -291 -65 -247 263 372 -296 -66 -193 249 354 189 152 462 237 -342 386 -267 126 302 156 -416 408 -174 412 415 104 472 177 -51 258 -50 289 -45 300 223 357 390 427 -426 57 120 -467 -294 27 -14 -330 137 175 -407 482 -419 271 464 -469 54 196 280 262 -13 431 187 18 63 199 -230 -480 -264 -382 -288 -89 -205 -229 442 376 251 21 -364 455 -113 0
184 -258 -354 281 -328 -496 495 368 218 -447 83 79 43 -133 -424 391 118 286 -101 272 -349 65 -69 -315 300 -475 33 287 229 480 254 -417 6 209 -255 -304 -93 -419 -203 -129 -134 -99 -452 394 -107 -291 -266 -174 235 205 303 440 -439 -239 -306 158 -246 397 -476 -401 365 -154 -60 -194 140 -42 -212 319 485 -478 310 -14 390 -125 318 -276 240 -488 38 -407 201 -383 169 59 379 361 380 282 -467 455 217 173 102 -215 165 305 -68 1 -226 375 0
-145 24 213 -366 -471 214 -487 -76 -266 -371 -443 454 398 400 381 282 357 388 -418 -321 263 307 19 352 -379 -303 -152 -435 -219 90 346 -269 -410 378 92 210 495 146 -108 -396 -496 348 -12 460 -424 -340 -310 34 -300 194 475 452 96 -205 267 33 218 150 238 -178 177 -375 -360 -333 289 3 -143 -182 458 374 -278 395 -173 48 -444 -137 165 -386 268 -164 120 247 479 -342 -265 42 -196 136 111 -56 -230 292 81 -281 -466 409 440 117 -36 376 0
59 -391 -361 -145 -116 -481 479 -24 112 -231 -362 485 251 -271 -91 -332 363 -224 -19 -229 -205 438 138 -280 72 -254 376 -308 -422 -244 58 -429 105 50 273 -411 -186 290 -102 -26 -378 -32 -279 -160 -377 77 -418 -120 108 -227 373 -311 -202 30 351 88 -334 -34 -457 177 -285 56 -499 420 433 -152 -482 -264 371 -46 -472 397 -408 281 333 -398 483 -439 -137 -122 -324 298 -234 61 423 -55 360 157 -468 412 -42 -4 -92 220 348 367 -272 314 -68 -282 0
-408 303 -435 456 -6 -47 387 -432 297 -95 346 152 -401 46 174 -136 69 -29 326 -466 45 493 96 353 343 -485 -372 -134 284 125 -89 2 263 395 -62 -65 271 -234 -196 14 -361 315 -356 177 63 41 -22 -64 -11 28 -261 -183 -106 -140 190 90 352 -101 402 208 -81 -223 -359 -500 388 -126 425 -256 -481 -279 312 426 -4 -172 472 454 -415 307 -158 324 215 423 116 -260 358 128 -384 -59 -407 -184 389 -224 394 254 -467 -483 -34 -159 97 438 0
123 232 -94 3 289 336 -241 -499 -145 106 60 -355 -222 227 -101 335 -102 120 283 252 116 -367 -5 337 81 -299 446 311 267 -250 362 179 136 125 -404 -172 -130 213 -33 -57 -161 6 440 226 42 -63 301 114 197 -273 122 -495 489 206 -96 310 -105 -265 -278 -254 140 384 28 -472 -133 474 183 -272 39 -1 218 -314 352 -138 7 -351 380 -262 53 -455 374 319 -478 479 -385 399 -396 -234 8 -69 357 174 -350 -158 308 -491 190 192 164 -426 0
463 -398 -187 224 -428 -64 108 -234 -60 -450 -458 423 -377 30 270 303 -36 -341 20 219 288 -33 277 -445 124 -323 -451 414 -307 -86 -214 286 9 -245 239 360 175 456 -248 -457 -148 476 -131 -97 442 -151 50 -87 376 -433 292 -47 295 473 444 -223 405 -25 348 -347 -400 318 -453 -106 160 -407 -412 -434 -133 -69 250 -121 -83 260 205 -492 153 -251 -361 241 -118 193 263 -66 308 -466 -352 132 -399 402 -385 384 280 -35 -46 -278 -172 447 -4 -185 0
464 -316 -222 475 324 -182 -163 495 -346 -205 424 189 -296 -104 -21 -398 -467 76 -409 -358 149 -309 -485 -131 -294 317 -405 397 -108 45 380 343 356 81 46 94 408 271 -216 -445 289 -178 429 -287 -209 190 -354 106 147 185 207 -407 -75 -388 -307 -457 -148 -268 -263 -67 362 -315 -377 192 -349 277 -304 133 -303 -62 392 28 422 -229 357 -276 -24 -63 111 201 -247 17 36 -113 386 328 -80 -256 312 -239 -345 -176 -107 -255 -129 278 -167 -132 250 -461 0
-17 -500 -84 -351 112 -179 -146 453 123 202 -468 -350 -289 425 135 -190 398 32 61 -186 -271 318 -439 434 169 -137 139 -219 -415 -163 -70 108 372 444 273 -330 -427 346 -116 140 402 274 196 59 310 -302 -329 479 9 -474 -387 98 -152 -253 171 -276 27 -333 472 150 118 -267 151 399 -237 -336 -490 -357 360 60 -11 -499 -194 -293 -313 120 -269 -226 308 -124 341 345 167 -466 -408 -356 256 -232 204 401 -25 130 -309 -414 -429 -43 28 34 -105 -386 0
44 -202 469 -98 -437 -176 93 -360 203 -20 -375 422 -214 -16 477 -470 -411 353 -382 220 -448 228 -347 -400 64 -43 161 -181 41 27 -242 453 145 302 -441 -286 -246 -180 261 -34 415 -59 -26 293 -66 405 401 -71 -5 -55 -323 377 76 222 264 -440 -474 270 341 318 10 104 186 243 339 236 -256 -152 121 -194 -300 87 -317 -168 221 -225 -135 146 -237 -391 105 -70 288 258 -346 -123 128 295 262 72 120 119 -74 96 488 -334 409 276 -224 -238 0
-238 -189 489 279 -103 117 -455 -347 -463 257 478 494 223 199 -401 -73 332 170 272 -241 432 -187 -491 -100 -261 333 -96 -280 385 -23 266 306 226 95 353 38 -278 -40 -202 357 11 318 -358 460 188 -213 254 -396 253 14 -125 388 -41 425 -378 74 -448 486 215 -132 -405 168 338 37 -111 334 267 399 89 -47 262 275 94 -51 -177 323 -453 -144 461 -400 -158 -112 466 161 459 -231 -361 -107 329 138 205 -20 179 191 -415 430 -99 -471 -184 -65 0
65 99 -256 -150 -246 -465 -298 1 271 -281 -395 -318 29 -178 53 186 -455 155 10 -201 -433 -330 -92 295 15 -260 350 -406 195 -429 299 -11 421 -21 189 -44 -185 -331 14 -313 284 -126 -443 -496 -87 217 221 -192 51 468 172 -83 388 -229 -262 329 -457 73 -261 -473 -312 -399 -449 111 9 -464 62 -144 -297 -382 -230 -101 -397 -42 -403 55 -346 25 -190 -290 -162 -323 -445 462 -235 36 -451 -459 -204 -269 -64 412 -381 407 54 4 -146 148 434 154 0
-246 -363 -11 96 98 60 82 454 -311 -239 -127 -391 80 156 97 -355 -266 207 -167 -56 -21 231 400 -435 404 -27 -64 -383 -376 204 -10 -330 291 17 -364 -248 326 349 -431 -181 -337 329 -351 369 -143 -124 -486 -374 243 299 397 -365 31 113 -356 443 230 316 242 -385 -54 232 254 297 -241 298 104 -396 -358 312 -304 160 -360 -287 270 420 -470 -161 109 251 -144 -341 182 -108 489 313 -77 492 42 -306 -281 350 343 269 203 415 -344 -481 -461 286 0
34 -223 80 354 68 -155 226 -112 376 412 454 280 -24 487 -451 -245 -140 -272 266 368 396 318 -259 -46 -273 -194 -13 -421 -244 -166 111 -348 -167 -88 297 -404 12 -409 -444 -165 -203 359 -152 -401 -496 -398 154 362 206 403 386 186 -380 157 122 -479 278 488 -3 -229 -312 335 -431 339 -62 -378 -159 -125 79 473 99 419 -262 -163 -250 361 -443 468 -242 309 -248 -9 -469 19 56 289 -123 124 73 217 199 313 300 400 -470 275 364 -332 -440 -337 0
-342 -3 496 183 170 -167 105 300 -418 194 123 285 -68 -174 210 179 469 -56 -305 -307 -67 233 -386 58 383 398 182 -93 -106 152 227 -366 358 20 -10 296 -268 -213 120 -199 -35 65 39 266 -429 -404 379 -14 62 339 -284 -75 -163 -209 289 282 -79 295 -31 345 -293 -173 -416 294 -201 -451 461 128 -72 208 259 310 -40 -428 188 -26 500 281 220 25 -392 -327 -450 -288 -463 298 -29 -360 -54 230 -462 158 -94 415 -137 -91 154 -217 -304 5 0
132 -183 -202 -145 424 500 111 -7 -330 294 218 232 -88 33 -223 -61 66 -315 46 196 -436 -332 112 343 34 -293 -185 -235 313 288 -245 -271 -494 336 378 -419 430 70 -14 -114 148 386 13 4 115 -391 247 -416 92 -402 -190 -471 -349 -364 478 -399 -486 316 285 473 493 -24 -360 -351 447 363 207 274 -177 165 -398 -25 -231 390 356 -243 108 21 -28 469 79 -204 159 96 -394 -342 -240 227 -191 -82 239 -30 78 -339 180 -461 17 406 181 -220 0
-356 -173 -449 -35 -499 68 452 441 -376 145 -291 -439 419 318 -304 196 14 301 388 -108 -126 94 -400 -169 469 -154 -491 408 -12 369 -394 246 -461 96 324 -406 -459 373 48 -383 315 295 417 -138 90 -368 403 -355 -61 249 -100 6 -163 -74 256 -13 430 -114 146 -23 -248 206 342 239 -321 -205 -70 288 434 -421 -10 299 -177 475 336 484 -4 -361 -432 402 307 412 -259 -392 -233 -281 297 -340 -40 -331 -143 470 352 -234 264 209 -135 197 -498 202 0
