c Random CNF formula
p cnf 14 50
7 -5 10 -6 -2 -1 14 -8 13 -12 0
-1 13 -14 -8 2 -5 -3 6 -12 -7 0
-13 -6 2 -12 7 -3 -14 9 5 -4 0
10 2 -3 -9 5 12 -4 1 14 7 0
-8 13 2 10 -14 1 5 11 12 -7 0
11 4 -3 1 7 -6 8 -12 5 2 0
13 7 -10 -14 -4 -2 1 5 -9 -6 0
13 10 -7 4 -1 9 11 8 14 12 0
-2 -12 -9 -5 13 8 -6 -7 3 10 0
-11 4 -14 -7 -2 1 -6 10 13 -3 0
-12 7 6 8 -4 5 -14 3 2 -1 0
8 12 -6 -2 4 -1 11 10 13 14 0
-9 -14 1 -3 7 -10 -6 12 -4 -11 0
6 -1 -7 -9 3 11 -14 12 4 5 0
-9 -12 -14 -4 2 5 -3 -13 -10 1 0
-6 -5 -4 -10 1 -12 8 -13 14 -11 0
-2 -5 -13 12 -4 6 -9 11 -1 -8 0
-10 -14 6 4 -1 8 -5 12 -3 11 0
5 8 6 -12 11 -14 -3 2 -13 -7 0
-8 -2 9 6 -13 -7 14 -12 1 3 0
4 13 -1 -14 -6 10 7 -11 -9 3 0
-9 -2 -3 6 7 -1 5 -14 -12 -11 0
11 2 -4 14 -7 -13 1 10 5 12 0
-1 -7 -8 -4 -6 14 9 12 10 -2 0
-12 -7 13 6 8 -3 1 -11 10 -14 0
-2 1 -9 7 6 12 3 -11 -13 14 0
-5 -13 -10 4 14 -1 -7 -8 3 -9 0
-14 -9 -8 -5 12 10 -7 -2 13 -11 0
-10 -13 5 4 -11 6 -3 -14 -12 8 0
2 14 5 -10 -3 -4 -12 -13 -7 -11 0
-4 -7 2 -3 1 -8 14 9 -12 10 0
-5 -3 -8 4 14 -6 13 9 -1 -7 0
10 13 4 -12 -6 7 11 8 -1 9 0
-13 2 -14 7 -4 -10 -12 6 3 1 0
13 -14 -9 4 -2 10 -7 3 6 11 0
-12 6 -3 11 -4 7 -5 10 9 -1 0
11 -9 -8 1 5 -14 -7 2 -10 6 0
5 10 -9 -13 -3 8 4 1 -2 -12 0
-1 -13 -11 14 8 12 -2 -3 4 6 0
-11 4 3 9 -5 12 -8 13 -1 -2 0
12 -11 14 -5 7 10 -1 6 -13 3 0
-8 -14 12 -3 -7 1 -9 5 -4 10 0
3 7 -9 -1 -2 -8 -13 11 6 5 0
6 -2 -12 -8 -11 9 7 3 -14 -4 0
8 -2 -1 3 -9 7 -10 11 -4 -6 0
-3 2 -11 -13 10 -12 -6 -8 5 1 0
-5 9 14 -1 -11 2 12 -4 -7 8 0
-3 -13 -5 2 4 -12 6 14 10 7 0
3 -6 -13 -11 2 7 9 5 14 1 0
-2 14 -8 10 1 -7 9 4 -3 -12 0
