c Random CNF formula
p cnf 80 20
48 -65 -29 10 52 32 -26 24 -3 -14 76 15 7 -70 68 17 -51 -6 4 0
-74 16 14 -6 -56 70 59 42 -72 68 -48 -1 -80 -52 71 29 3 65 -23 0
-12 53 70 -27 65 -77 56 -39 13 69 -51 58 10 66 -14 32 67 -47 -36 0
-79 -46 -71 -2 13 50 -45 56 -40 -69 42 62 43 8 -32 -12 21 48 -55 0
-35 26 -17 -4 -3 -37 -30 -29 -32 -77 -1 56 14 -38 36 80 25 -51 -60 0
-2 -56 76 -61 23 55 -5 17 -70 72 79 -22 -27 6 -80 -3 -71 38 8 0
-41 -11 80 15 56 63 6 54 -44 -33 -53 -49 -32 79 -47 20 -78 -42 7 0
-67 65 -15 -79 23 -70 -62 30 -72 56 -42 -45 -40 35 -29 -46 -66 -24 -2 0
-39 13 -16 -12 -36 -51 52 42 -72 56 -23 -49 55 -67 -9 -40 -76 -10 31 0
-21 -60 6 -15 78 -48 36 79 50 -70 41 -63 59 53 -1 74 54 -34 76 0
-29 -69 68 54 -2 -27 -34 -77 -16 -18 19 -66 -6 -41 55 25 -14 -39 -58 0
17 50 -44 59 49 -24 22 35 -67 -62 15 -5 -10 77 19 72 -46 -7 4 0
41 51 -61 79 -4 17 -49 -38 -78 -21 -25 70 73 -45 -59 -50 30 77 63 0
76 53 75 7 -38 68 67 -11 -18 22 -13 20 3 70 -8 -43 -66 54 -59 0
33 42 -2 -52 15 -16 9 -23 29 -11 65 80 39 -44 -58 -57 32 -14 36 0
-12 -39 -17 -62 30 71 13 -59 -2 -22 48 35 -72 45 -37 65 43 -41 -52 0
-13 -22 -5 10 8 23 54 58 -56 -74 75 12 70 -34 77 -66 40 -62 44 0
41 -79 27 -17 -34 62 45 -56 26 -40 15 -11 32 -44 -19 -66 42 24 -54 0
38 49 -67 -21 -70 -35 74 -50 14 68 12 -40 6 -53 9 -41 46 30 -47 0
30 62 -24 -37 69 22 -46 -7 42 -40 -80 21 -27 -11 -70 -6 32 68 65 0
