c Random CNF formula
p cnf 200 300
-144 -67 45 -187 11 -37 -100 -166 -104 -33 -44 60 195 -114 -22 185 196 36 -198 68 132 8 -118 40 27 82 -135 -28 -41 -159 -115 -53 75 -26 -109 29 42 134 -150 127 -101 -181 168 -131 -130 -90 191 -94 50 -108 0
115 118 -147 157 -130 64 140 124 46 -6 -25 145 -128 -79 90 -16 -14 -73 -83 80 -114 -93 188 -10 32 36 -31 24 184 7 -186 -23 171 -20 -74 -43 -170 62 -45 8 185 177 197 -125 -88 -63 -77 -112 195 30 0
-18 45 -10 -186 119 129 -158 -162 118 -22 -39 -180 -88 157 114 -81 112 139 -2 -142 29 26 79 -100 170 -110 -143 -108 -32 -116 35 -126 185 -106 -21 -78 -34 178 -165 -154 14 145 -17 121 152 -16 87 84 -169 -133 0
-128 -101 -180 -117 -182 157 -85 4 153 -78 34 133 71 96 131 -109 -21 -81 -102 -105 -196 43 -127 -167 55 -7 -48 163 165 -154 -174 -132 62 194 84 72 -94 116 185 40 67 -20 -69 -89 156 159 164 41 -77 -151 0
-36 -52 -5 -20 -42 -147 143 -87 161 129 -119 -76 -112 174 -185 91 97 140 31 -115 -164 -66 -4 -166 167 41 -62 34 54 -77 -46 -40 194 -130 -14 -149 -57 89 69 -60 113 50 -48 26 -82 -159 -100 153 -122 -58 0
50 -85 -55 195 -104 40 14 -56 141 -64 -157 21 -135 120 175 -187 -110 126 116 -199 -148 -105 130 61 191 -41 25 117 177 -11 -90 13 8 100 152 -172 53 137 -54 -77 186 -30 -142 -9 196 29 -149 132 19 -10 0
-143 9 58 -121 131 76 -79 73 -101 -17 -3 -56 -119 95 -160 26 68 144 94 -64 147 -145 180 89 82 -161 -50 71 -91 126 178 103 -129 -124 158 21 -164 -108 -53 77 106 146 -107 -8 83 -196 -179 -194 61 -51 0
9 132 -129 -198 181 -182 13 -112 138 120 -190 -77 -151 -160 -95 39 -164 68 52 -158 12 123 159 -173 -188 170 -165 46 -179 106 -109 -72 8 91 192 -75 -3 -131 71 59 62 -156 189 -24 110 -127 -180 11 84 98 0
27 -65 174 -166 -62 49 40 177 102 -198 114 101 17 -188 147 -159 -154 -143 130 -157 -103 158 35 128 70 -81 68 175 139 190 -150 -180 32 -142 -7 -120 14 -9 -134 54 133 86 82 164 -43 -112 -58 108 -93 106 0
53 104 121 64 168 -65 -156 -109 -24 -99 52 4 -114 -50 -144 -143 -132 -137 -8 67 107 -84 85 172 -196 -122 -136 166 -129 25 -152 -3 142 78 57 -160 -33 92 27 54 -81 -22 19 -2 106 -44 20 68 -34 49 0
150 -101 -80 168 115 51 -158 79 167 46 -146 184 72 69 -86 -54 -199 -132 -74 -49 45 196 55 42 156 155 96 -99 -78 -26 60 -112 -37 25 128 -127 -47 17 77 149 -119 176 -10 171 195 -82 58 139 -163 126 0
150 61 138 -105 90 146 10 165 45 -95 -11 -119 196 22 -164 -2 -198 123 46 -63 57 4 187 174 99 -79 80 102 -137 -184 98 58 -188 -8 -190 -176 -12 177 178 19 37 -18 100 -199 73 17 -194 -142 39 -74 0
156 34 11 -163 8 -186 -133 -196 79 31 -122 -179 -131 121 25 -153 -143 -166 -16 -60 -100 -62 181 -183 198 -190 -2 70 94 -23 -52 -184 -83 -200 113 151 56 -47 -148 -39 92 -164 -45 119 137 132 -50 -27 75 -144 0
-175 91 -12 187 -159 66 79 -155 60 -148 134 130 122 -6 -105 84 165 -145 -51 -24 -156 -127 139 83 -31 -73 -118 -151 191 -50 -32 -47 18 -119 -106 23 11 -197 -179 -38 -193 -149 -89 55 141 -126 75 103 22 -117 0
-52 129 -155 -103 -12 85 179 132 32 169 -193 -49 51 17 178 -71 87 -102 167 66 -164 -39 136 -9 67 -10 8 -184 -37 171 -59 -163 191 -166 -62 -110 190 -131 -113 36 140 -24 125 -98 38 82 16 141 96 23 0
48 90 -87 -168 -2 -126 -149 143 -163 137 135 -39 13 -63 113 -145 10 86 34 23 129 -139 130 120 -151 88 -52 -64 160 118 158 -55 -190 -1 -192 96 166 16 62 -59 32 -124 28 155 -112 -153 -67 -61 -93 -187 0
112 30 -75 -135 -66 -77 13 -115 -170 -162 188 163 63 -79 65 177 -22 -193 61 85 -140 73 29 -182 -119 48 172 78 198 -47 -18 -100 -76 187 139 104 37 131 -88 20 -8 33 143 45 -122 54 -138 196 -14 -9 0
-121 -13 18 -150 47 -100 86 76 -101 -152 -130 20 8 -56 39 120 87 84 106 91 186 135 -196 -105 -158 -154 142 153 3 78 77 147 -195 -65 -92 145 38 -124 -97 12 43 -88 74 9 184 -182 181 -42 85 45 0
-135 75 -101 -114 -120 -148 -34 -39 -65 107 -22 80 -113 43 -200 198 -47 -187 125 53 -86 -14 56 -11 -118 -28 -188 51 -143 -132 19 104 -197 192 -35 -163 45 -9 66 139 79 40 -58 146 10 -142 147 133 95 -129 0
-46 173 -98 -170 169 33 51 -111 -175 116 102 -187 -119 9 17 4 66 -10 107 2 -25 141 105 -18 96 -179 -124 -40 64 -155 138 144 -117 -186 -49 86 158 -166 180 184 142 -165 16 -6 -143 -147 53 41 -189 -122 0
-40 186 171 24 74 -71 6 -151 188 -86 8 -102 88 -37 192 169 -28 144 -54 196 187 114 32 -91 53 108 -162 -12 128 -1 -94 -97 -164 -15 -159 25 93 -139 -42 -180 183 -33 73 -61 -10 -165 122 118 -157 -100 0
99 -103 -13 -5 -186 -183 132 -141 33 -160 140 192 -187 197 -24 78 200 -153 -63 -54 181 113 -126 -111 -100 -109 9 -195 -43 165 -69 55 86 -105 31 144 94 -18 68 146 -193 97 -14 -135 -17 60 -23 -83 6 179 0
-155 -7 -33 -131 -144 129 -51 112 -123 -74 196 -198 -45 -101 105 -35 192 -42 59 -189 -195 200 -93 46 60 38 58 29 94 -5 -172 -54 -68 133 -194 150 -152 121 104 -34 -84 114 169 -57 41 -175 -102 27 -77 188 0
-29 -13 -77 -139 68 12 92 120 -8 105 11 119 185 57 167 20 193 35 155 162 179 54 -42 -107 135 -180 80 168 -15 -132 16 -134 87 -44 -190 -36 -172 6 63 -50 -46 -38 111 10 5 -158 -189 73 72 -65 0
163 -187 -116 102 -69 -32 -57 -128 -141 -97 175 -8 -3 -66 177 135 -172 6 -56 193 110 -166 -36 37 149 30 -162 -67 -196 -1 -160 15 -39 -132 158 51 -81 165 180 26 170 178 -153 -195 2 -182 4 -72 62 171 0
-80 122 47 -81 140 -97 -1 182 -31 -70 147 -105 -129 68 -60 -23 -159 108 14 18 -150 126 -192 -41 56 -24 -165 -154 116 -193 163 137 -172 -71 53 -22 -73 -85 -194 -20 49 181 -178 -98 72 95 115 -58 -111 -160 0
-191 -1 -129 -86 -102 -50 166 139 -174 -178 95 -168 5 -177 68 -106 112 -176 137 -133 83 -160 -29 94 -149 -28 104 -89 -179 17 66 -148 63 60 -13 132 189 -34 -16 -33 -128 46 131 -145 172 -21 -170 -182 140 -39 0
-58 -161 45 -53 46 61 -118 13 16 130 66 20 -160 34 182 17 121 163 60 -142 -191 12 159 -187 -87 78 -64 -85 113 184 -90 47 39 -91 -188 55 136 31 171 120 1 -77 29 -96 137 148 -197 15 -178 32 0
100 -25 -28 2 -131 -135 -189 184 166 144 -159 -76 -65 29 -3 79 -89 -163 20 -13 152 -88 143 68 -35 -99 -133 199 117 -96 -104 -33 192 70 115 -169 -38 -142 90 -121 -161 -15 -103 -110 -147 -57 9 -94 -190 -123 0
-115 -69 198 175 -111 47 90 36 101 35 -143 106 -44 166 -58 -195 45 -57 168 177 186 147 -12 7 93 -55 82 -53 -138 120 -110 -140 -149 200 176 -136 142 -24 152 18 -125 154 -117 -164 85 -33 79 -68 -64 122 0
86 -163 182 19 -76 -108 6 40 -132 -187 145 -165 -23 3 69 72 -44 -4 -39 -109 12 -82 126 191 134 -114 -93 -28 141 21 123 171 -175 -192 -27 -15 -63 57 111 14 -9 140 -136 162 17 155 173 197 -61 -193 0
134 -3 -73 7 17 160 86 36 183 62 -165 78 -120 182 39 -196 -90 32 113 70 -40 122 -22 140 -129 103 191 148 -126 21 -111 -38 20 44 200 63 -190 -124 11 109 -76 175 -167 65 -94 99 46 123 15 89 0
-2 135 1 -103 -189 32 130 85 11 -126 -34 124 194 -188 23 51 -84 -10 109 191 -116 -3 125 154 -138 153 -5 -18 50 158 112 101 58 -174 -98 -56 77 -93 -121 144 57 7 -131 -111 -60 80 62 -33 -184 47 0
76 53 -75 162 -115 126 111 78 22 170 63 -185 -14 70 -39 44 -87 181 -155 81 -43 -102 -164 52 171 -96 199 -194 91 -133 -159 -123 -101 -134 50 -121 -61 -25 -200 82 -67 -113 48 -84 -6 69 176 112 -94 156 0
-117 190 -139 -14 148 20 169 3 -13 -81 118 -36 41 -181 144 39 56 -73 -128 114 8 29 196 -157 -47 24 18 91 152 -51 -16 180 105 154 -71 65 -138 -59 -58 194 7 100 110 -78 119 84 159 97 -150 -153 0
-56 -15 122 190 189 -158 172 -185 -40 -22 -108 -128 -97 -76 171 124 125 -54 -36 148 -130 33 -39 -165 -73 -111 -63 -52 81 -79 -157 -5 23 186 110 -69 18 -113 -101 -114 48 34 107 43 -198 -106 103 -50 155 75 0
5 17 -36 -109 142 -170 96 8 138 133 -21 161 -77 55 56 140 147 43 -171 -87 154 16 95 -80 11 111 49 166 -15 10 54 174 -90 24 136 48 139 190 35 -53 116 74 3 -191 -28 -46 25 -94 -34 -137 0
-78 -121 -58 -198 31 112 36 -10 5 28 119 -21 -200 137 -34 30 -75 38 151 -27 -168 -154 -159 6 40 44 -22 -11 -41 102 -160 -37 -100 -20 195 -103 -132 -90 138 186 153 -53 -135 -64 -141 152 -97 145 63 85 0
35 130 84 -181 23 2 -159 -32 170 5 -15 -6 44 173 33 187 -151 -146 -101 113 -128 29 137 134 -16 38 -7 -197 99 152 -18 67 -46 132 -40 -139 73 179 -198 1 -72 -200 -114 28 85 140 -141 -186 -103 -163 0
148 174 104 79 -20 4 2 -71 84 17 -24 -119 194 153 -177 61 -134 -93 -40 -35 169 126 -5 -1 49 -188 -116 175 167 -166 -162 200 198 -196 179 102 -38 -183 -76 3 -91 -141 161 56 137 62 128 192 -159 83 0
-51 115 -131 -200 -107 198 -8 -88 142 -165 19 -145 -15 -181 196 79 23 -162 -193 -99 183 -175 -154 105 46 -135 72 -16 -128 -96 -18 121 -7 -43 169 58 69 -64 190 -102 -67 110 -94 108 -199 -27 -34 -136 62 -84 0
-13 -36 55 -32 -111 146 138 21 194 131 -128 -114 -163 102 -9 -117 -145 6 61 58 52 -89 -54 43 -168 -119 97 -5 80 -3 92 -118 26 -185 99 -27 68 -28 172 160 45 173 -31 -113 120 -177 -71 -174 -123 -96 0
94 34 -168 -155 -59 -178 148 200 -151 143 -119 -51 -159 -184 12 -63 73 16 -18 -192 3 76 179 78 -24 9 72 -39 -115 103 -150 36 -23 146 -21 -95 88 140 113 85 31 -96 10 126 79 -68 -112 -6 176 49 0
-127 15 -154 -6 -5 -3 1 -132 -147 18 61 173 62 11 -23 31 -145 -99 -199 122 81 138 -109 -125 -77 -124 -105 -126 137 -53 106 50 -48 134 72 -71 144 115 151 80 -139 -189 88 4 -111 -22 -108 180 -174 58 0
-7 -28 -187 158 -193 -147 161 -77 105 149 -144 -166 -63 39 -21 -73 -108 -142 -174 170 -135 84 183 123 124 -36 176 -152 -196 -165 155 -133 -30 -168 -198 110 -55 160 -99 -19 125 -27 82 87 129 180 -106 -128 -120 -186 0
-6 -128 38 111 -149 3 -159 -17 -73 81 198 63 147 130 32 127 -92 -176 -136 -192 -188 84 76 74 194 89 167 90 -47 -116 120 125 12 5 -140 7 -4 156 -179 109 -36 -15 -65 -115 -196 -61 193 95 -39 -34 0
-83 -18 -124 75 -115 91 -54 85 29 176 -117 192 -186 84 4 171 177 30 36 104 82 187 -20 -26 139 -157 48 -100 67 -178 35 -3 154 200 -150 93 -5 55 -190 -196 -73 161 114 165 118 167 21 179 168 -19 0
37 139 185 -12 -101 188 198 -135 -163 141 156 -68 -123 -120 -50 -125 -3 107 147 45 24 -192 191 64 -99 -52 46 -182 9 4 60 -7 -189 58 84 77 -18 149 -127 -158 -73 59 -154 -190 177 -133 165 199 -197 -33 0
-195 -53 23 -90 -103 33 -57 89 -130 64 96 143 170 133 -160 183 -166 54 -22 -72 68 31 184 148 -194 -137 44 -12 92 -83 46 192 29 74 181 168 4 157 118 9 17 -173 140 16 -77 -1 -51 56 15 -165 0
188 -116 44 37 80 166 -50 180 -84 -200 169 -69 135 167 31 -107 -90 -115 -184 -145 48 54 -74 152 -190 -24 -64 -140 -181 32 -151 -153 63 -172 27 -113 72 28 -105 -143 1 52 -62 25 -87 61 -18 23 12 -112 0
-1 160 131 -178 -143 122 -197 74 114 83 -176 -63 -98 162 -52 -140 -145 -81 -190 69 -161 -180 33 -75 -79 -93 -164 37 13 150 -127 39 -50 199 -168 68 28 -94 -165 -166 -19 92 -57 3 123 158 -91 -29 -133 173 0
32 84 -134 -178 79 48 181 13 -183 -56 -78 167 190 57 -111 -16 -2 -148 -109 -49 -140 -62 98 17 179 -151 60 -63 -147 199 200 -96 37 197 126 -35 114 51 54 117 103 161 141 90 64 1 105 -8 -150 -175 0
191 135 -105 -183 39 28 -182 -118 104 15 -101 -113 181 -144 151 -60 -170 154 -64 -14 -6 148 -137 41 -58 -142 -84 17 165 -42 -136 -29 147 -48 149 178 -132 200 -134 -107 102 -92 -120 68 180 -30 189 -16 162 -33 0
162 183 -108 -102 104 27 123 16 -143 -44 -7 -92 90 -2 -67 -23 -48 17 -25 145 18 -137 -14 179 -6 -125 150 -190 -1 83 168 73 50 45 -87 160 56 -132 -26 -41 -8 9 -185 -97 -140 -42 21 64 -69 -193 0
-82 -90 170 139 10 -189 -67 -187 -83 -40 -52 -117 -127 114 -140 61 -121 159 122 70 57 92 -33 -188 193 76 -77 -55 38 -19 42 -15 91 -49 162 198 131 -148 -150 -53 -124 -81 -126 26 74 113 -68 72 -48 179 0
80 -178 -199 3 157 46 40 -166 74 -36 -177 -144 -60 189 50 -137 -141 -130 -26 -79 -9 43 -124 190 -98 -192 100 93 -150 -153 -138 -136 18 4 77 -180 -89 -174 69 -94 -1 -132 -21 -13 168 45 -72 -5 30 14 0
-60 -123 -158 -14 199 -126 -107 -133 130 73 18 -76 46 196 61 187 34 175 190 164 12 -98 -94 116 96 -174 -80 23 -134 -110 193 -200 86 151 167 -191 -144 -180 -177 85 -135 122 90 -185 -5 162 186 13 -21 33 0
-170 55 -141 -77 48 -3 73 -38 174 32 -178 4 193 86 12 149 195 103 -154 150 -163 132 -74 120 171 108 110 -101 24 180 159 9 61 78 -29 172 -99 194 -50 -130 68 -113 13 -160 -39 -156 2 95 199 -23 0
188 -49 -25 121 80 -108 11 159 19 54 -61 5 163 102 63 153 -89 185 75 -78 -86 41 71 18 129 -150 -157 -10 28 147 105 168 -42 -93 -122 -178 112 -87 -143 -189 196 -198 -164 -110 192 154 -79 179 -184 -38 0
-118 -105 144 198 63 -100 -163 92 -1 162 -8 -197 102 161 -94 54 -103 6 -134 -83 23 28 15 7 10 165 130 177 60 169 -46 -37 -86 -126 164 178 145 -57 -20 -187 -80 -79 -81 30 21 18 34 129 -157 -200 0
-49 -34 24 -13 -21 -176 171 -52 -162 4 -143 -79 151 -81 140 164 67 -8 -136 -58 99 -19 83 -106 153 177 -174 51 108 85 -191 123 26 -145 -98 64 193 170 -71 -39 -141 194 -101 69 -180 57 60 165 27 41 0
-131 11 -13 -61 -176 150 -79 -177 20 102 -134 -158 -12 15 189 25 51 -193 19 106 132 119 139 -84 -157 -124 180 -99 142 -75 -191 -52 22 -10 -54 -135 86 170 166 -42 145 164 160 173 59 -94 -156 -136 98 4 0
-75 -115 126 -107 172 -184 34 168 49 -127 40 -19 20 -158 18 -175 -124 141 -3 -26 197 192 -198 166 17 167 -170 -147 -132 -12 159 -157 -118 140 -190 180 -186 -23 169 -177 -145 64 173 -135 -92 -60 42 91 -100 -24 0
180 -179 133 70 120 -45 -50 -178 -139 -175 56 64 -48 131 13 14 -8 -141 -191 126 163 -85 -11 -142 199 -95 98 132 -90 105 9 -46 197 -117 -195 -160 172 -165 -127 80 79 -19 -21 -87 -25 -97 -162 -31 159 2 0
183 142 -100 -178 -163 66 -123 -4 28 48 94 3 -190 83 -32 -75 191 -27 42 -17 -36 -106 166 127 164 -53 9 62 -194 47 -171 -167 -104 192 8 56 150 -58 121 -148 -44 -109 -116 -92 196 82 -147 200 -134 130 0
4 122 -170 18 -146 135 -179 -182 152 -156 -194 33 20 109 -111 -81 181 -82 -80 185 -175 -142 32 -127 42 66 -115 -168 101 -95 -151 -90 199 35 167 -112 110 124 196 77 68 -79 70 -129 -188 100 -21 -5 19 154 0
195 1 -113 -163 12 -48 122 -87 136 114 181 109 188 172 153 137 94 103 121 90 200 -107 -190 -60 -97 83 -62 -15 183 -61 -169 -135 -54 59 -161 -27 28 -187 140 -127 13 -68 101 148 196 -131 -34 199 159 -165 0
184 65 -119 -99 -69 -27 -133 105 -36 -180 41 87 73 29 52 107 140 1 160 -9 42 -193 -75 110 -11 173 93 74 195 -136 50 -90 62 26 -61 165 -88 -176 -183 127 -46 -15 -102 -137 -118 -124 -131 189 -45 -53 0
-181 -35 126 200 -186 -109 99 -81 7 45 -113 -108 42 -147 1 -152 131 30 -50 46 -72 -91 -159 -84 76 -54 -49 -10 -199 -149 61 -59 110 -155 -162 90 -141 96 -166 86 -12 32 29 -34 197 -101 124 167 -119 39 0
-140 164 116 25 -115 141 -65 -160 -43 194 81 -103 35 50 113 -22 80 184 159 -47 -120 -75 -54 -51 -84 182 157 46 -34 -72 -40 144 126 53 198 -104 -200 39 174 146 125 175 177 87 -181 -23 79 -161 67 -96 0
-118 46 -160 -163 -70 64 -40 -90 -142 66 121 -31 7 109 -99 104 140 -4 -177 73 2 45 105 50 52 132 -167 193 -188 -15 -156 -175 117 -176 -164 -197 -124 6 -107 -166 -169 -147 -150 94 -101 184 -69 -22 115 198 0
137 -127 -109 -21 72 197 97 125 128 89 -37 -150 -169 -115 -47 142 64 18 -111 -156 -2 28 79 -96 117 10 -147 -5 100 86 -23 -116 -63 22 -87 80 95 164 -182 65 70 -40 -9 178 1 49 -59 -113 -75 51 0
115 159 84 -183 185 -134 -106 -35 130 10 147 -44 167 -152 -188 -144 155 -62 8 98 85 -120 122 -11 -109 -47 -174 177 -131 73 -87 -65 -133 22 -39 -27 68 -72 52 -111 -30 57 -117 196 192 164 180 154 92 -176 0
116 -144 -110 -128 139 16 -12 143 -2 43 -103 155 -52 147 197 115 146 -93 6 -168 124 -165 -56 23 129 54 -162 -186 -169 10 -200 105 -87 49 -35 190 106 160 75 -57 -8 -122 15 -150 -31 196 136 -77 135 -149 0
-21 79 148 -163 119 -176 1 155 -177 171 109 50 -29 -28 -73 30 -40 86 -19 100 36 -64 114 182 195 174 -66 96 42 -32 -198 -164 24 4 67 -25 -138 118 167 142 72 3 -134 94 31 161 -116 41 -84 33 0
-119 85 -128 114 -28 80 -176 43 -152 -159 4 17 40 -72 24 -185 170 -48 82 78 112 -137 20 86 188 -37 -8 38 -57 192 66 106 -169 -16 22 -99 76 -150 -115 189 -69 -2 198 199 -200 19 -155 -127 117 -146 0
38 68 -31 -150 -171 -69 -151 -30 131 134 -144 109 88 159 -114 168 -119 -200 95 -93 -72 -62 -137 124 174 -157 164 -105 135 -120 -79 -36 -166 133 87 104 -180 5 24 -33 -155 -91 -149 153 -2 -160 -78 -186 84 -185 0
107 169 -179 126 -25 -170 -163 -94 44 6 135 -167 -75 129 -143 184 80 172 79 153 -27 18 -150 -191 86 -88 -83 -70 -78 181 40 -190 -19 99 73 -24 62 -114 81 147 177 -102 183 -187 -103 -48 87 -188 2 -178 0
-55 73 -147 141 -10 87 -157 -6 145 -21 17 -120 -23 103 168 45 8 72 -16 -109 124 -190 12 65 -14 -184 -189 -60 -99 180 165 -64 117 63 43 -177 198 57 -69 -83 -158 77 -173 -113 48 -3 -185 74 -123 -47 0
-31 104 -146 -93 188 54 39 88 -81 180 111 -7 -13 -43 161 -51 -179 48 114 68 -22 41 159 95 61 -189 -79 8 -166 -92 89 -121 131 178 -133 58 18 -33 47 -192 28 -23 -191 -176 15 -27 103 -169 71 -84 0
-95 -89 29 -102 -51 -6 -114 -94 -117 -35 -7 -146 -87 -168 -74 -194 111 -92 -45 -43 161 101 -187 36 -174 -77 -67 -33 46 -23 48 144 112 19 24 15 -140 -38 177 -127 -148 -62 188 99 11 145 84 -166 -133 -184 0
-104 -166 -102 -85 -105 -106 -89 -192 -41 29 -135 -153 -164 138 123 136 -58 -137 178 -107 -100 -195 -103 -60 -10 -80 154 -133 158 -73 -99 150 25 -86 -87 39 63 189 -143 -97 -12 186 -70 43 -129 67 -131 171 163 140 0
45 -179 91 -8 117 -115 74 130 -18 200 -171 -186 24 -122 -78 123 50 -31 -158 128 6 -14 -99 73 146 10 153 25 178 -30 32 -4 106 -46 -19 79 -55 -94 -98 -142 -118 34 157 197 194 -167 105 188 169 180 0
41 19 31 -186 -73 -116 -58 119 69 -92 135 -165 177 72 -200 -157 -79 -52 -76 -174 -111 151 12 -96 179 -83 -120 113 11 9 25 56 15 84 -16 74 -138 -118 -28 94 -158 172 -27 -194 -37 -160 8 169 -192 75 0
152 -110 1 128 70 88 -109 125 20 -146 75 -43 100 133 -96 54 -159 123 -34 -11 -186 42 19 160 79 26 -197 132 -158 36 -2 71 85 139 188 95 181 86 -10 3 57 -18 -7 107 -80 168 -81 106 113 -177 0
-102 -41 -22 -146 -67 46 -12 72 -106 -16 -17 85 -136 164 -63 -167 -114 101 -190 104 171 175 140 115 45 -9 105 133 18 128 -191 56 -160 -118 -44 187 -124 31 168 76 -95 98 43 122 -92 86 88 -54 194 7 0
-113 -128 149 -31 118 64 89 -53 -1 -97 -59 -62 110 170 48 164 119 -135 -23 -67 25 -88 200 102 -95 -161 -146 28 172 2 169 -152 129 -115 -22 -96 140 44 -83 -60 132 99 -156 85 17 34 -189 -61 11 -58 0
97 -93 -114 179 104 123 135 -47 4 156 -184 150 -171 -19 -148 20 154 11 -64 36 -57 198 -29 -153 -130 35 194 -69 -146 -159 131 -68 -18 -94 -101 -136 162 147 -199 42 -74 -33 -73 -55 163 188 -129 -98 -100 -142 0
-108 -89 158 138 192 -180 -56 -137 44 -120 135 -93 -105 100 121 -122 35 -16 70 -59 -77 -133 -157 -191 -145 -66 83 -118 -25 61 7 117 -45 -37 -169 -199 -54 141 81 14 -126 -13 -71 60 -92 91 -164 143 160 115 0
-10 -76 138 -142 154 -149 -193 -118 -190 -58 109 178 -60 -56 -8 166 -35 90 9 -24 173 152 112 -49 -59 40 98 180 189 81 97 -18 92 -29 132 100 200 128 -199 -185 -110 11 -22 -170 -71 -88 50 -15 6 162 0
-29 -127 161 -136 182 -3 47 -130 157 7 27 85 -181 165 -46 -45 66 15 129 -16 23 195 -99 -43 -20 118 159 -137 185 -112 -101 177 -60 -17 12 124 51 -179 95 -100 90 -199 -78 4 168 -34 -44 114 145 -6 0
-40 -25 -70 172 -171 65 43 -147 -99 75 63 -106 79 -17 -118 -123 54 36 -19 -98 87 -136 179 -173 105 -186 -126 109 67 -117 181 -73 -38 46 86 -128 32 -103 -174 -20 -161 183 -27 -184 167 138 -55 198 195 -110 0
-157 4 51 -41 22 -79 31 -126 146 173 -50 81 -34 53 -115 -137 -16 -130 -179 123 200 83 57 1 65 61 153 -68 -3 102 -199 -155 182 120 190 -84 -12 -33 17 64 156 45 -88 164 40 159 76 74 144 132 0
-50 180 103 58 -153 44 38 55 4 -171 -75 53 185 -9 102 162 -187 -137 163 -168 24 164 -18 -41 131 181 -190 96 125 -10 -134 -48 142 99 -123 27 -116 -121 6 155 -72 -7 177 110 199 36 -30 166 20 196 0
-38 -69 -192 47 75 194 -10 34 -111 31 -132 117 146 -68 -120 -59 -65 -87 -53 54 163 188 -25 -171 -51 123 -168 -98 140 9 -84 143 174 43 4 18 -85 -131 160 61 -175 -57 -64 -144 178 -149 170 -121 6 24 0
103 -170 176 167 -81 22 94 159 -165 122 128 121 134 -174 45 71 141 42 -92 78 -108 8 164 -118 154 9 47 -110 -67 19 -156 -163 -21 -150 132 -173 57 -66 -60 -95 64 -31 155 6 185 -5 184 138 80 70 0
-161 132 -35 165 86 -157 -170 -42 37 -147 -50 187 -114 162 -110 -109 178 124 -90 -141 -112 -151 100 33 139 -59 9 154 3 -36 -12 -101 194 -150 102 -171 -176 -103 -11 75 81 -142 -49 120 93 133 105 -1 -123 -31 0
175 68 27 -43 -122 22 -158 109 -182 169 166 55 -90 8 83 -12 -62 40 -63 -96 1 -102 172 78 -95 -181 24 163 167 -77 -151 46 -67 -194 38 -111 58 -48 -54 -51 -9 174 61 -150 66 128 -117 -20 134 177 0
-86 -179 150 22 106 -197 -77 16 -122 82 24 75 96 -91 53 66 120 45 146 104 -100 153 190 -98 -168 -63 -74 -73 -188 -147 162 170 59 -50 -119 171 -101 4 -124 56 15 -181 112 -132 -37 -116 76 194 -54 -142 0
-137 82 24 -22 -196 117 -149 -116 -115 -5 -4 -153 -145 -80 -121 -154 163 199 -25 175 -146 -52 -61 -43 114 17 38 -40 -101 -155 -74 -166 150 -92 72 -50 79 191 -99 -189 185 122 -51 -159 -106 -147 109 -133 33 -144 0
-12 -180 97 -178 107 13 -75 21 -188 -108 25 57 -114 81 -163 -193 30 46 162 50 16 141 5 -65 -131 -98 44 -8 132 144 95 -128 -29 113 35 151 130 168 -112 118 157 10 167 -101 -66 175 -77 -99 40 170 0
139 190 -95 92 45 -166 79 -47 -140 -89 54 -145 -55 130 177 -64 159 60 133 171 -86 33 -20 147 88 -65 8 -41 -32 106 -135 -68 -165 195 57 -157 -59 -72 -154 127 -126 19 -148 -30 191 -134 -116 -5 -186 194 0
142 189 115 148 183 120 -38 -129 -170 -1 -137 66 109 -186 130 75 90 -140 132 104 13 -155 89 181 -16 97 -125 68 71 131 -93 -11 39 197 126 -22 -101 156 -116 61 144 198 -135 -91 -121 -80 -48 32 -8 -195 0
-86 -190 13 43 -9 100 -38 -92 -89 125 -35 94 -165 85 -98 -65 -106 -121 -101 119 -57 76 12 160 -143 -153 -16 -159 -79 53 60 -170 -7 -177 56 -3 135 110 84 -169 83 137 91 -122 30 45 183 149 -199 -168 0
-191 -142 -146 94 -105 -44 -166 -27 -84 58 176 158 -16 -194 -66 164 -161 31 -100 15 -78 -83 167 97 -8 19 199 -113 -101 -96 -71 -110 14 -12 -126 92 -183 -155 -98 -131 -151 -152 -188 -117 193 70 13 -3 125 -144 0
44 71 82 -109 -86 -25 -89 159 -112 30 -151 -57 -156 -68 194 -148 -14 77 -140 -5 -165 127 79 134 -131 -51 61 139 -10 27 -149 184 130 173 -55 16 96 59 -100 90 114 -37 -42 196 58 -170 144 -181 63 39 0
-128 119 -58 11 63 -152 -182 -171 167 -153 -34 -107 126 60 123 57 200 116 178 -97 179 170 140 -110 -162 -192 40 -17 181 127 -108 -150 144 -174 104 -87 -39 -14 -188 -43 -165 69 -95 21 -32 -133 18 -62 121 -98 0
129 -25 -163 36 185 -195 -87 95 -110 144 -160 -172 82 123 -42 -33 -10 -34 12 24 -60 -132 -85 -170 -84 113 -103 22 -66 -94 3 -40 138 -164 -145 169 -91 29 -64 182 -188 -150 158 13 73 15 45 140 -38 76 0
15 -121 132 -142 119 53 59 153 57 -31 -169 -114 164 168 128 -190 5 3 140 150 -184 149 77 162 158 172 165 154 46 24 -1 174 -74 188 -73 130 173 103 -98 40 178 -200 -131 71 -195 37 -156 34 161 70 0
62 -20 69 -24 -146 -99 172 -11 176 -77 96 -3 -9 22 -15 139 -74 131 -113 -179 -84 -156 171 189 66 105 -78 28 -65 -192 50 68 95 184 -80 -148 -36 132 92 135 16 -55 -167 -26 -142 -183 -29 -21 174 45 0
65 -130 -5 -145 178 -59 146 180 -163 40 186 -90 -167 73 -103 -153 -80 -140 -151 -198 -112 -39 -18 132 52 26 155 -88 -143 169 -156 -63 -131 157 -55 -106 91 -95 173 -50 34 -62 161 78 136 -128 179 36 166 -87 0
-22 -116 -107 177 -197 94 165 167 -53 38 -100 -84 -123 155 93 126 -15 -157 146 159 -31 87 -117 190 -135 -174 -65 50 199 -168 60 111 -137 171 7 194 13 -30 -134 193 -182 -75 46 120 18 79 -40 -105 -54 -80 0
168 -64 52 -87 -147 -62 -83 -34 96 -49 -195 190 -75 -176 -143 -57 16 -4 -137 131 18 -148 116 60 -183 -23 -115 -72 192 -188 -199 165 -154 -126 -65 -125 149 30 113 -77 145 150 184 -95 -134 -41 51 -158 -141 42 0
-197 -119 -30 -9 -48 -181 -43 163 148 57 -137 100 46 131 -68 174 -112 -80 182 -118 188 88 126 65 79 109 54 -19 180 55 -89 140 -40 82 160 -179 -101 138 -95 -169 29 16 -146 -199 -145 63 -73 166 -13 164 0
-101 -174 34 -109 -176 -182 -127 136 95 28 33 116 -110 72 -191 189 -119 129 -97 40 161 -149 167 -41 -54 138 -6 118 160 199 -7 196 -86 -60 11 -200 125 -37 32 92 -105 -24 -53 -98 -19 23 4 -18 -107 -166 0
-10 156 -123 136 -177 72 25 54 84 155 107 178 -64 154 -18 -135 28 -92 124 80 194 -50 186 -138 -193 -95 -37 82 139 -118 -5 -163 181 -196 167 157 -93 86 141 67 -47 111 -14 81 153 103 75 -116 -19 -53 0
153 60 6 -61 -132 112 69 189 11 -186 159 97 92 -116 -141 78 71 -194 104 27 -89 -129 -152 4 -137 -191 109 -103 -131 -36 59 162 65 21 -46 16 -143 9 -111 135 -187 -166 182 -100 -158 -26 178 37 -192 -94 0
-114 37 128 -4 -85 38 81 87 78 -48 -55 -179 -154 -133 -30 -59 75 135 -66 94 -110 155 -61 -21 -25 -171 57 -16 163 -129 -181 144 172 -17 13 197 -138 -184 -86 -41 199 107 157 -153 101 -88 158 120 174 -194 0
-180 -12 -185 132 90 -21 112 -139 -50 -104 -124 64 -91 136 -78 198 -144 -102 -106 -69 -28 -166 -169 -113 -18 -195 -8 -129 55 119 71 -163 148 36 167 161 10 -154 -75 51 -17 -88 -67 -1 179 -145 48 197 -80 -59 0
-180 181 -51 -54 59 73 -168 -118 21 -91 -144 -57 84 -169 155 122 -111 143 97 -71 95 66 156 -152 79 196 70 -24 -45 -88 -116 -106 -64 80 40 68 -113 192 -15 -165 -164 -25 194 -197 -128 -1 -141 -167 56 98 0
36 156 -170 116 108 -153 178 -42 -131 139 -73 -154 104 5 -123 -110 -53 -78 190 -80 147 120 -135 -117 26 71 75 -90 113 -40 -174 -152 172 137 148 88 66 60 196 -160 21 29 32 -150 1 28 -65 -9 -133 48 0
187 38 186 133 -155 190 -125 96 32 -34 116 29 139 28 172 127 181 -26 -184 60 197 63 37 7 -176 -14 163 -84 86 165 -97 21 -128 25 -101 90 -75 -92 113 -182 -41 156 160 -36 -150 68 -105 -175 -51 99 0
61 -37 -3 -147 -77 57 86 159 70 -114 184 -180 75 166 66 155 18 5 107 -2 160 -33 -136 -98 162 -195 -170 69 94 -62 183 -76 -56 131 -110 -73 16 -9 123 -48 -169 -117 -20 -7 -176 -133 -83 115 103 129 0
-94 -72 90 -168 -108 147 -64 89 154 116 -113 146 197 -140 136 -151 -49 -92 2 -148 -10 5 -120 84 128 83 -22 -9 180 184 35 -67 -125 156 155 46 166 115 101 -15 196 -150 177 68 107 -88 -178 142 -43 -152 0
-141 93 -92 -183 24 -100 15 -131 39 94 45 -75 90 122 -73 -97 -46 74 -50 154 56 -11 84 38 -151 -41 170 -52 145 121 36 -7 158 71 140 -182 79 -47 -96 101 89 -66 -54 -65 128 86 -167 -9 68 -1 0
-161 -200 -19 94 145 86 -81 60 152 -149 46 -189 186 26 -22 8 146 -2 193 -179 -148 -74 62 5 125 -29 195 -58 47 -35 -21 -121 -197 188 -53 -166 -142 -39 -50 -14 -119 -128 93 -165 -116 56 124 97 3 -185 0
70 -178 81 94 -87 135 35 -42 -1 95 -59 82 141 -100 -140 -48 168 182 -26 -86 56 -151 49 -117 175 185 -89 147 197 -184 19 17 167 194 25 146 -136 -133 76 -46 -37 -24 152 112 8 149 -107 -27 -113 4 0
-115 -94 155 99 64 -11 -7 124 -12 -78 167 193 153 -55 159 154 -195 -43 194 -15 17 117 -116 -177 -21 -152 -137 -59 -191 -13 52 185 -77 200 81 -58 29 -56 -14 -197 -179 75 50 100 -151 -180 -148 88 73 -70 0
179 -148 -8 152 -5 21 -58 -18 12 -37 -70 29 149 -153 144 7 198 -16 161 120 -93 -38 136 -100 -199 -111 183 -1 2 155 -83 -72 -110 104 -147 196 -42 -10 66 -6 159 131 -50 -19 -140 -94 142 -32 76 184 0
192 -68 25 74 -197 -76 35 87 131 -179 -111 71 62 -157 9 -169 118 -5 160 41 -158 145 103 15 -161 7 -24 -94 -10 43 -155 178 -102 -185 -183 16 -166 116 27 -159 -63 99 -73 182 -171 -93 -120 -165 -98 -188 0
-144 170 196 34 -64 123 -83 -66 44 8 98 -31 79 149 -129 -199 -14 188 -94 -150 -143 -70 158 151 2 81 -197 -39 15 161 -134 -59 159 -21 -194 103 -195 160 178 116 107 43 -27 104 -1 20 -124 155 -47 -165 0
-15 35 -148 -1 54 85 -38 -150 127 -70 -184 135 174 6 18 42 -156 16 -175 188 171 33 89 -110 131 140 -155 -94 91 -98 -83 81 194 105 137 111 -134 -157 152 -143 109 138 193 68 -58 158 32 67 180 121 0
45 22 -84 -189 -104 -1 133 99 -168 36 -155 -19 -119 -105 142 -66 89 -43 33 -93 -15 -86 -80 -135 -56 -116 113 -115 -16 -71 -68 134 -188 -52 143 106 137 -194 118 -58 17 136 -146 -39 -61 -97 77 173 -35 32 0
-97 -65 146 -183 -107 -40 -71 137 105 128 186 131 149 -195 -180 -185 -166 -168 132 52 12 24 58 182 57 -116 127 -91 -98 39 -27 16 -79 103 46 88 53 4 84 165 18 -129 151 158 196 -94 -62 35 -178 -100 0
-73 58 -172 186 -49 146 -51 196 30 -161 173 -94 -197 28 192 -113 111 92 -129 105 -135 -190 -181 -65 -84 -60 9 148 -93 -160 -95 4 152 -34 -134 -185 118 -155 -25 99 188 -20 -77 66 -193 -90 119 184 86 -127 0
58 40 5 200 -47 -69 122 -89 -99 101 -98 103 76 -194 -11 68 79 -187 -152 -110 -75 14 -54 145 -134 -137 -60 -114 -94 146 123 17 -156 165 1 -64 158 4 177 -131 -124 186 196 41 -43 -148 49 129 -63 -109 0
5 183 -28 47 190 192 -35 -23 168 177 -165 33 50 -7 -27 13 -125 187 -30 -15 169 150 127 -166 -142 17 -132 148 -134 39 -84 -92 -164 53 122 -105 -198 -146 157 -32 -135 -115 77 -154 -26 -193 20 -6 2 -155 0
56 173 -86 -36 64 147 -184 39 150 6 -200 -122 128 -171 -14 130 182 112 -121 -133 -79 -12 -199 -137 -192 -31 111 -124 49 -103 -13 -183 -178 -19 174 66 -198 181 148 102 177 -90 57 -78 113 197 117 -47 77 -16 0
15 86 -81 121 -139 -156 76 -149 181 -174 -147 -196 -63 31 168 65 -55 -185 22 -50 -21 140 138 -70 -35 161 -165 -13 -112 94 -135 187 -78 84 -62 -36 -127 99 142 79 -101 -184 30 -4 144 108 -148 -14 -192 -178 0
-123 -63 14 -7 -141 100 51 -27 2 31 -46 96 41 45 87 -190 -47 -115 16 179 -177 -148 -53 187 -33 65 102 3 -35 -25 192 167 -103 120 -138 159 -12 15 79 -160 59 -18 -32 -117 -91 194 -20 1 -74 -64 0
61 80 -27 -54 -6 42 -44 178 97 -184 20 173 46 -30 35 77 186 -49 1 53 195 -126 -23 3 193 139 -183 86 22 -159 -188 134 93 158 -123 160 -82 41 -131 -121 -143 -13 36 57 32 25 128 69 -90 33 0
87 -39 181 -36 -91 127 -103 -50 -112 -9 27 55 -77 -114 -62 135 -106 -134 23 -152 -105 -80 48 -146 22 148 -47 89 107 198 -88 -42 -30 104 4 -15 -24 -12 -137 -102 197 -38 -101 189 -113 -74 -147 34 53 -140 0
-38 -190 -112 -57 181 -192 -32 125 51 -134 61 34 -47 163 136 99 -74 -89 -107 24 -81 -27 77 195 167 165 185 199 -45 70 84 -153 -54 4 -68 46 -193 146 -129 -102 142 183 -184 -168 -71 176 -65 -35 114 101 0
-145 17 -54 -154 -150 46 36 155 192 113 105 138 84 -159 189 13 133 144 33 -50 -81 89 186 91 53 127 112 -75 151 135 -59 65 191 -111 -80 30 169 28 67 -9 -183 180 52 48 -195 60 -92 122 185 114 0
-194 162 22 77 -173 -81 -149 -40 142 -110 -53 -103 158 -66 -155 104 54 -183 92 -107 -20 -150 97 -83 35 -141 19 -172 -127 109 -46 -186 -130 -181 193 157 -71 -171 -199 -161 76 182 163 86 -151 118 -106 -154 -187 -7 0
-98 108 92 -170 -113 -47 -42 76 -169 -95 128 199 63 -143 -41 -145 -174 -90 77 1 -9 -101 153 2 16 179 152 -61 59 -173 156 175 75 -37 -158 -5 -181 -182 57 150 -86 -31 125 48 -23 177 -33 -29 -123 3 0
-115 190 73 -173 198 66 31 -33 63 87 -95 -124 -186 -192 -104 128 39 112 145 -193 169 -148 -32 11 101 -96 102 41 29 37 -135 -105 144 189 -90 44 -56 -160 -165 83 -60 -20 139 70 -182 -18 -9 138 -92 171 0
93 116 62 133 15 -165 -98 13 45 71 -96 37 -158 -27 87 -73 196 20 54 -79 85 53 -141 126 115 167 50 -59 100 176 74 151 -77 140 168 -193 -163 117 -173 -143 105 -88 188 -109 -146 -195 7 78 -23 190 0
-78 -130 -10 51 -36 54 85 -143 88 40 -169 -68 188 -171 194 -118 91 105 148 146 178 -72 -56 107 15 125 152 102 90 -104 -141 97 -2 -26 -17 128 -189 -113 41 177 -65 111 -4 -124 44 -140 -173 47 -76 109 0
124 -11 189 77 145 57 -82 -12 140 49 -161 123 -16 -152 66 176 -196 -157 -33 -68 151 -184 171 -118 99 149 -91 112 79 40 84 120 -53 -109 81 -110 199 -37 -131 59 76 -51 153 -3 146 -75 89 159 192 73 0
-81 9 -187 -199 -197 -45 -112 -6 59 100 -65 66 -153 194 -165 -26 -14 -179 -37 -3 -91 -87 -62 184 63 24 15 -5 76 83 -196 -117 -135 -71 -160 -173 -19 -115 -33 -156 105 -90 -151 97 -191 109 -68 39 -98 145 0
-143 122 -107 -106 -55 -101 -158 114 181 -192 -112 31 -47 144 -89 43 173 135 81 -183 42 157 -127 -58 -40 -137 64 18 -16 -88 136 -141 -161 12 -155 -99 -186 -32 30 134 92 98 -154 21 45 26 -17 -48 -153 -24 0
-64 -193 -32 144 -129 -45 164 36 -107 -44 -28 -185 149 9 -55 -27 108 -143 13 -113 -80 -182 -171 39 190 -30 74 70 -159 -195 -172 131 -1 134 89 -81 169 35 179 199 -2 -173 -52 -142 191 178 -57 116 -163 -153 0
8 184 71 53 -63 -24 170 -75 19 -154 -41 -133 116 143 45 89 -104 -195 -81 -126 27 13 189 -128 33 -173 73 90 -197 -2 64 -166 160 179 -150 183 -171 -196 78 -136 192 151 -94 -147 -161 -84 -105 167 -70 102 0
47 35 22 63 5 3 -115 -117 80 -87 139 -159 45 -197 127 -37 -135 -60 -116 17 173 177 -68 121 123 -112 140 43 -142 -106 40 -114 -59 58 26 -188 -89 90 163 -94 10 -143 -126 -180 -70 13 -91 50 190 -119 0
-40 -152 -166 -146 39 192 133 66 -81 -172 -154 63 -28 32 -51 24 5 -156 53 97 -178 -163 -171 193 138 -106 164 142 -96 -10 108 100 95 25 -86 -38 -17 -137 104 74 26 144 -132 149 -31 -165 70 -130 194 -185 0
126 -32 -134 15 -110 -194 115 -75 -124 55 -166 21 -178 -24 20 60 117 158 -98 29 90 -51 182 195 172 -48 -35 -131 -96 -93 145 -49 -114 -74 -129 107 63 -153 36 7 149 -152 -87 -88 -139 22 76 89 10 -61 0
73 143 159 154 -86 1 43 -97 15 -163 195 -166 78 199 -125 -192 46 147 194 193 -141 -107 167 83 62 174 -146 128 -25 -57 109 -184 180 -104 -171 178 121 -11 -149 23 -135 130 -118 -142 -189 -56 145 -77 -12 -85 0
134 -95 122 148 81 -29 -150 -4 -14 35 -58 100 152 -161 140 -147 172 -153 -119 -8 -73 -6 93 86 42 149 40 -39 49 34 106 83 26 -13 17 59 188 194 -10 71 -88 78 179 166 -30 -191 -184 -91 -5 -98 0
-147 -129 38 -10 13 109 -52 -196 71 88 -197 81 -166 7 -45 -63 -43 -47 182 70 106 199 -104 -68 14 11 105 122 189 172 20 155 157 142 -160 146 194 44 -145 -140 -108 99 -185 19 124 -148 3 100 -177 90 0
130 134 43 116 132 -97 71 -66 -140 154 65 -191 88 181 199 136 196 101 -77 84 146 -52 -182 -138 76 64 -60 121 184 -158 -22 149 41 -126 137 10 -107 91 24 -193 28 46 -108 74 -155 -168 21 -157 161 4 0
-13 195 81 -31 178 -172 145 144 -44 197 147 131 35 -149 -179 -57 93 194 27 177 4 21 55 -36 173 -158 -146 -176 -56 6 123 96 132 -185 138 -175 171 -189 -76 -77 -137 98 190 -61 -84 71 -60 30 100 183 0
200 92 64 -47 -159 -124 -178 -147 148 -117 -19 3 -151 -95 -193 24 -102 -31 176 25 -40 -143 5 -45 -115 168 -160 -69 173 1 -13 -139 -23 -184 -100 58 52 190 60 96 78 154 111 12 -187 -198 63 -8 9 -175 0
155 -157 199 -72 93 3 181 162 152 -31 -118 43 -62 168 -182 87 21 26 -171 -161 178 -86 -158 -37 -17 -109 -175 137 -81 -65 -64 170 42 55 148 -7 -120 190 -35 -187 105 -104 -29 -122 -194 34 -192 16 -91 -200 0
149 -193 22 112 186 -28 69 -103 150 85 183 -200 -160 -95 -131 13 -8 -147 -86 -173 -44 98 -70 164 -11 121 -7 60 120 -155 -184 122 15 -165 -161 178 190 106 79 -34 -101 105 55 -171 179 -3 -188 -167 119 -49 0
-83 64 73 -166 35 -25 -36 -50 71 -195 190 156 -92 -119 171 -191 -24 -163 93 -58 -188 -181 45 -12 146 137 164 68 -169 -103 -62 33 -39 120 110 -154 147 -2 -22 141 99 -67 -37 81 -15 -150 -140 17 108 153 0
49 -180 -153 -80 -130 92 -82 -38 128 184 -145 13 -194 -81 -32 69 -21 -27 -52 -25 152 41 -72 136 -192 -167 177 71 -8 188 -12 -40 -42 -160 -187 -6 198 -73 -200 78 -122 -154 168 -193 -34 -182 -109 114 -162 61 0
-132 44 128 160 10 103 -19 78 -90 155 149 34 49 138 -32 -174 31 -81 -110 -37 173 15 -189 -61 -197 -107 188 119 169 -179 -133 2 -190 -80 -101 98 -117 -92 9 97 -120 -131 65 137 -148 -108 38 141 71 139 0
-194 164 155 49 21 199 22 122 107 135 139 -5 196 -129 -100 -41 -30 -44 99 121 -183 -109 167 130 8 79 -77 158 -66 152 -159 24 200 142 32 -163 -179 -160 23 -89 15 -59 -65 -149 -2 68 71 -188 -38 153 0
64 -113 115 -73 158 49 51 87 169 124 -180 -75 -21 92 -199 -193 -134 -1 189 19 -102 68 -25 33 27 6 -183 42 66 -5 -157 164 -162 -196 54 121 -50 114 62 -195 -160 12 148 -74 67 82 -171 -174 16 -80 0
93 -27 104 182 68 -70 -89 -101 154 -168 -21 -95 16 139 -198 -91 -76 -111 58 -82 -75 -53 -78 149 9 -117 -200 -15 -40 125 174 52 153 -103 87 -145 160 98 -56 190 -20 66 183 -32 26 3 -2 -60 123 -51 0
147 14 -192 -155 -108 21 111 -107 139 41 128 39 26 123 60 -132 -81 -152 -186 -9 -72 137 118 -113 -13 134 -165 110 82 -129 -175 69 97 -56 -2 156 116 153 89 109 35 -92 -190 158 -166 95 73 -43 18 -71 0
94 -165 52 -115 -58 -180 -5 160 104 10 159 138 -199 -169 56 -173 -109 43 -84 -95 -141 -17 171 22 2 1 72 177 107 -60 92 191 -126 59 -11 31 -7 55 48 6 101 145 -151 -176 -150 156 -42 61 114 -45 0
13 39 -173 32 -79 162 97 -74 -56 65 -59 -86 -89 -92 184 181 185 -55 -149 161 -194 -11 -130 108 84 139 163 -62 169 83 25 98 76 165 -19 57 10 46 88 -144 -54 -148 191 -99 50 192 112 -166 66 -195 0
-183 129 89 -149 -4 -112 -145 -25 -80 -31 159 -65 -100 2 -48 18 153 -148 -191 190 -199 95 -53 32 107 130 114 -113 -110 -55 -26 170 -109 -174 -144 -165 -128 -146 84 -105 36 -180 134 -154 -111 179 96 -92 99 93 0
-115 171 -57 91 -196 -151 -15 -79 10 -111 -9 -190 -44 -80 -199 -52 46 144 23 -192 112 -40 170 143 -33 -142 -58 121 -20 -139 -119 -194 -138 -21 161 -117 172 4 -152 -169 -120 86 123 -47 124 34 -141 -22 -125 -68 0
120 -146 68 8 -132 145 22 -96 -185 191 -133 -200 -167 -63 -20 -77 -55 36 161 153 152 -75 -190 -71 -79 90 -172 151 -192 67 -9 117 108 7 -99 -65 -110 -102 26 -168 15 -113 129 -31 141 -59 -197 180 -162 -149 0
-156 -23 82 -147 63 85 169 174 187 -70 137 -49 197 113 183 -5 -55 89 186 -53 157 -50 -192 -116 -7 37 170 -168 151 177 -133 -194 171 -108 -64 -16 14 -72 22 -68 96 -21 138 178 2 124 26 -52 61 -69 0
-33 -77 -177 -95 151 144 36 -17 -91 139 -71 -69 -112 -145 138 -48 -141 148 185 -80 -159 -97 -42 -120 47 115 54 -199 21 -59 -168 -29 162 -57 -51 49 -72 -187 -4 -113 50 18 96 -67 -192 -76 194 45 -161 114 0
-93 83 194 -43 -135 64 169 -160 53 136 108 41 -184 104 -118 -81 -11 -164 -45 -31 19 30 97 111 148 -133 49 82 72 178 -7 -150 191 -102 -139 -192 197 114 -86 39 -87 -170 -110 -84 -162 193 180 -90 -21 76 0
-154 138 -144 50 -151 -8 -196 91 178 -193 -124 166 -55 27 195 -46 -181 74 -38 12 -17 69 172 81 -101 66 106 -43 62 44 25 13 87 -179 31 -20 -186 -58 -77 -30 -169 -145 -189 2 173 -93 -200 197 -68 -164 0
-146 153 112 159 21 34 108 -162 -16 72 137 -176 -68 -8 -79 61 144 31 179 -42 126 -124 -141 -156 106 14 -172 46 7 -86 -62 -148 -174 135 -77 -30 -195 -182 -181 13 -38 -43 175 136 96 44 125 165 -117 58 0
-88 141 -179 -51 173 168 -155 -104 125 137 -136 140 -174 181 -147 153 9 -67 -143 115 -133 102 165 -152 -109 144 16 -151 184 -76 30 107 103 145 -4 54 43 -48 18 -17 192 -134 -1 -24 -81 33 35 27 171 169 0
-130 89 -25 53 1 138 -41 14 181 -20 127 -195 -21 -30 122 -129 -118 -191 167 97 -111 164 93 -183 -60 -115 -136 -81 75 169 105 -18 -16 -186 125 -70 -73 200 -72 38 -58 184 -49 24 42 -146 59 -78 -144 61 0
-27 59 -134 -38 -102 81 143 159 167 140 77 -79 114 -141 153 -34 1 109 -63 13 -8 -36 -135 -41 -57 185 189 67 197 -20 149 -129 -125 -113 -93 199 61 -51 -181 145 -171 121 43 158 -78 -163 118 -60 98 155 0
64 184 71 103 -112 18 -13 61 188 -68 146 57 147 -161 -105 -58 142 -193 110 -51 -16 -27 123 53 -168 -88 48 -165 11 69 90 -67 2 -155 59 -101 -42 -152 132 151 124 -46 -108 22 189 115 131 20 130 167 0
-166 152 -41 36 -38 66 133 116 -182 -129 144 -168 -140 60 63 -114 -156 -197 165 -55 -132 184 -189 122 72 -53 -80 179 -180 -127 -65 147 -158 45 141 -87 -32 31 -58 107 3 170 74 -97 -93 -102 -124 -5 -135 173 0
166 7 14 47 -130 97 135 -86 -169 40 -19 -38 151 103 75 -164 34 -1 -190 -186 74 43 123 -21 171 -29 93 37 -176 124 -153 56 41 49 -179 -189 30 161 -12 -134 -98 -140 -197 -25 -20 -114 94 70 -165 180 0
66 120 146 -85 41 168 62 160 -98 -124 43 155 135 29 -14 -90 -113 -73 22 82 75 -182 140 65 -45 -181 136 131 -74 30 153 143 145 91 93 107 167 -132 111 -197 -129 -54 -92 -119 149 -21 -134 104 -42 96 0
181 14 79 -61 78 76 -146 -15 170 -159 147 -142 153 84 37 105 -93 143 -152 128 130 80 162 -47 -100 -191 49 178 -83 177 197 94 -163 164 -89 122 125 -44 -111 154 -40 99 -23 73 -108 -66 48 -174 53 -1 0
-117 100 151 -126 -161 -173 4 128 38 72 118 -83 7 -129 -164 -107 36 -60 -155 9 -131 115 -53 -158 91 -75 -11 -125 -192 172 198 14 15 184 -101 -185 -157 -170 -95 -132 29 -110 54 55 10 169 -96 -141 -145 105 0
-177 -76 -77 53 -116 -103 132 -66 -147 -2 164 -98 200 -34 83 93 133 -15 -84 89 -29 -25 149 -51 -143 45 -3 198 79 114 28 -178 24 -181 5 -188 121 -80 -19 -14 -22 11 21 42 -92 167 87 -74 50 -108 0
-153 -28 -63 -50 -154 196 -150 -155 197 -58 -104 -33 27 18 -94 36 -76 88 -37 -151 -130 -169 -195 193 -109 -49 -39 -163 -87 -84 -81 -112 86 158 -5 -164 -24 173 -64 -162 20 -190 159 8 -3 79 -6 -31 114 -157 0
-187 -125 149 53 69 -31 82 68 154 -95 -41 147 -141 25 -63 102 -61 50 -34 22 -134 127 -111 -140 8 81 194 -121 -99 -155 17 117 56 182 -5 -144 89 48 66 156 142 12 85 -103 -165 151 -106 39 139 169 0
172 -109 129 -136 -179 77 67 -57 -177 -160 47 -46 -122 98 -81 196 15 45 130 14 26 144 111 -86 197 8 -117 24 -29 -107 43 37 126 83 -97 23 113 -149 -22 -174 -120 94 -18 30 -75 -106 -150 33 -182 76 0
150 157 73 -69 160 159 -72 -4 30 37 3 -63 -39 21 158 -42 -136 141 101 -26 135 99 138 -115 -54 -29 -23 -114 -49 -33 105 -89 -134 -40 91 71 128 -46 -87 58 -62 -90 122 -18 -124 148 145 170 -183 -195 0
94 169 -106 -68 9 -164 -168 -16 -98 -33 191 74 -122 -73 -35 39 71 62 -110 -28 81 -121 -5 -159 -188 -70 -127 -185 43 139 18 -152 -150 149 -55 57 -92 -156 126 -189 -67 59 6 48 -172 -134 184 130 -15 41 0
-52 -30 -119 53 -179 -111 -80 -16 -184 -3 -26 31 117 -94 103 -64 144 -178 -154 -12 -66 -120 -147 133 -161 183 24 -157 1 198 -171 -73 -91 136 -182 96 155 89 -59 75 6 -98 39 -175 -37 -72 189 69 -10 -148 0
115 -14 -163 114 51 -3 -173 162 -120 74 57 -184 -30 -15 -12 -182 -189 -28 82 78 -174 -89 -175 -186 -53 -149 196 62 -44 -172 102 -111 -38 -117 -119 59 -47 54 156 127 93 123 -11 -42 41 169 -129 146 108 160 0
-197 -104 -129 -24 115 -49 -60 -42 -110 -33 -52 -69 -85 -137 -180 98 -124 -136 -3 19 149 14 56 -73 11 -172 -185 63 -148 -9 -183 8 -165 -181 -194 -158 25 -154 126 76 -178 65 44 190 -191 -81 61 32 -159 -94 0
176 199 -99 -122 172 175 -84 130 -145 102 171 174 -128 58 9 197 20 166 -118 7 -75 55 -3 158 -192 151 -33 -157 -160 51 191 -152 65 -32 -131 -119 17 -138 -49 141 -21 50 200 190 -5 -30 133 -101 168 -85 0
161 12 -153 179 -197 -78 -23 34 32 33 -2 -98 169 -92 17 177 -183 84 -9 -72 -144 124 75 -132 -191 -176 190 -147 36 -79 -26 111 -133 -8 -51 114 -154 -56 70 25 116 37 102 -112 -5 107 -100 -200 -175 -160 0
97 5 -17 189 29 -114 -118 -54 20 89 -175 -37 -156 33 128 121 -173 -39 -155 46 174 -44 -126 12 -149 -49 75 -21 28 3 34 -117 -27 99 112 22 53 32 18 -1 -108 170 77 -62 23 -188 86 -88 -56 -58 0
-105 -70 25 79 -108 75 52 18 -29 -43 -84 -22 127 146 23 -200 -51 -106 188 97 -64 91 -39 147 -153 -189 16 54 41 -159 -137 -14 -171 4 -167 53 99 -142 103 -13 21 1 182 187 -180 126 10 -184 -158 -199 0
77 -131 51 53 91 191 -126 50 -96 37 -76 -7 -174 116 -117 -123 -71 -197 -167 -19 171 55 -140 95 -80 164 -138 -61 108 -88 156 105 -25 22 -5 193 153 137 100 41 -67 163 -113 119 -106 172 185 -81 190 -145 0
-69 166 174 45 -181 118 30 -59 156 -167 -18 -133 -113 -142 95 162 36 -200 -150 -86 -97 -169 -104 12 -134 -41 161 53 -37 -93 -115 -168 98 24 -188 57 96 107 -139 -195 -85 -17 123 27 -124 -38 -189 68 32 -131 0
-160 -48 -134 190 -194 26 -49 -158 166 -126 25 37 189 -183 45 102 -22 90 69 -28 76 186 -93 -47 116 167 -187 110 173 -148 101 -114 81 -15 145 130 56 198 -171 -129 6 150 -188 125 -32 157 -78 -124 -17 -12 0
77 83 -136 -121 198 -20 -44 -183 -126 76 5 -92 66 141 168 -4 -45 187 -89 56 43 137 -99 86 -182 151 125 21 -156 194 114 157 17 -104 172 144 -51 58 176 167 -82 152 35 -150 -22 159 181 98 -25 140 0
-200 8 -146 115 99 123 82 118 14 94 21 97 -10 63 57 -133 12 128 127 140 -199 -114 -33 111 -5 100 -143 -37 117 121 119 -101 157 -154 44 85 -120 56 98 -158 152 -83 4 53 30 75 174 42 -6 -151 0
-111 137 181 194 -33 -47 87 60 40 -50 -89 75 190 105 -113 -29 -182 -115 99 -189 -15 -106 -31 -59 168 21 170 131 -37 36 -173 38 -70 -46 32 3 187 -42 128 -133 -108 127 -141 -162 18 -143 119 -149 -95 54 0
-131 -51 60 183 27 -54 -150 -48 141 -156 58 146 -140 -116 -34 29 -47 -161 -12 42 -117 16 89 -86 -49 158 -43 -164 91 -55 -24 126 -128 200 134 -63 -62 77 -69 -195 67 -152 -170 11 -123 -72 109 -81 -172 194 0
111 -74 -59 73 126 -37 119 193 -107 6 -188 -199 12 97 51 149 200 50 77 -30 167 -5 72 -18 103 67 -196 -143 -93 -35 132 189 -36 34 -129 -121 -84 112 85 106 -3 14 99 62 115 -55 160 -161 -19 -56 0
-77 -98 126 -32 52 140 -117 -158 -19 93 -135 59 -44 8 -66 132 -147 190 -56 -156 -167 -50 -107 -63 49 191 94 194 -42 -69 -124 -7 73 181 -101 -61 13 -89 -162 131 47 -48 -186 -142 160 -175 -164 -38 86 100 0
36 25 130 -73 3 -190 119 -182 24 11 -165 -41 32 -186 144 -195 -117 14 107 -162 168 -76 131 2 -126 86 77 90 106 -72 -47 -138 140 175 -128 -187 -167 93 54 -18 -53 -111 -179 66 -151 -26 -136 4 33 -163 0
59 -66 -5 -53 -134 -38 -43 50 -125 115 -103 186 47 -60 23 198 105 -48 99 131 -154 182 -132 -3 65 -55 -30 -180 51 129 -145 -2 187 190 138 -158 179 63 20 -95 91 19 169 147 78 -74 -72 -173 122 61 0
77 -79 -190 198 12 -63 83 -137 81 -133 84 169 3 130 18 58 -164 99 -168 -121 155 149 200 101 57 -143 -86 -80 114 95 -5 193 23 96 8 -171 -183 -102 73 -188 139 122 -181 141 65 148 -98 -192 -132 -69 0
-93 47 -91 41 -150 137 162 106 -82 -113 4 -174 65 40 31 51 -21 46 111 -1 -10 94 173 -77 -107 -181 -139 123 -193 -163 -84 -114 110 177 86 -122 16 -116 -22 -161 -197 19 191 -120 53 -70 18 -36 90 95 0
-61 32 -136 -148 37 143 -70 -24 -33 -163 49 -67 198 -181 194 -63 -188 -16 52 -91 -117 40 90 -191 -138 -177 95 -184 -31 -72 -54 112 -169 -27 -39 22 74 144 -44 -185 -195 -93 -41 14 -88 58 86 17 108 -92 0
-4 126 199 169 -31 149 -26 56 63 141 29 -94 -44 -118 -140 172 -93 -49 177 -84 -78 79 -159 -120 -85 174 193 119 47 -70 192 -25 6 -76 -46 100 158 -55 -98 20 -123 -130 50 -134 115 -136 185 161 -181 -163 0
188 54 -77 190 194 83 164 15 -42 -145 -67 -82 -170 -47 -152 20 95 -176 -84 117 127 131 125 -16 141 158 -41 -74 92 -154 -88 -31 132 -195 32 5 116 -179 -113 148 133 -171 -161 -136 -130 186 178 -160 -79 -105 0
-6 -92 -7 -51 -10 98 73 161 38 85 -8 9 61 -28 117 -5 11 -91 -144 -101 47 125 121 -188 -95 69 147 20 -199 135 165 65 -123 43 105 -197 160 49 67 184 -131 -159 75 79 94 13 170 -190 167 -154 0
77 64 152 -194 -6 98 -3 62 32 168 90 -124 133 50 -28 -113 118 26 175 -103 -23 -95 146 163 -75 153 -136 56 -7 29 58 -40 182 -132 139 22 -49 -42 12 -59 110 70 74 119 -111 -191 142 179 -93 -190 0
-135 186 -65 -199 -194 81 110 -146 18 123 64 52 -130 -34 -198 69 -125 -79 29 -76 114 60 -37 -106 70 143 -87 103 -56 6 -85 157 104 1 -200 90 156 -129 -190 -118 145 169 35 14 2 -137 -39 179 -68 158 0
2 165 122 111 -77 -12 -133 -90 186 -119 23 87 -117 -192 176 -78 156 -44 -51 65 -63 -9 -98 134 -17 168 135 82 178 167 -191 80 158 123 85 141 189 105 181 -160 -110 -152 -30 6 -14 28 20 143 39 170 0
-8 -88 155 -58 114 -69 -109 -149 -108 152 -169 -81 -124 -85 87 -195 -30 -101 163 126 33 94 -19 -24 38 6 120 -5 151 -127 54 64 -48 -53 -183 -138 45 -89 73 156 49 99 -111 79 115 -181 -71 158 191 -3 0
-30 -11 -183 97 136 23 -113 177 -74 -160 138 -102 108 127 -79 179 141 150 -1 -6 161 64 122 20 -178 -148 -14 -180 -88 157 80 112 92 73 -62 159 -66 13 -69 -4 -81 -42 156 -29 28 167 -85 57 -175 192 0
-189 -196 -73 17 -72 -120 25 181 -149 -28 -139 176 -18 142 7 -137 192 187 -171 -65 169 89 129 12 -50 -38 -86 94 61 -13 -145 -88 162 27 150 97 194 -200 130 22 -70 -174 199 -161 -39 66 -24 -197 -153 -113 0
162 -114 -153 76 -63 123 -15 -69 -143 105 -31 166 60 -32 182 -149 -85 -84 -127 159 47 90 168 41 172 -160 8 -5 110 59 -100 18 -187 38 -28 19 34 113 -1 -169 49 147 79 83 193 151 138 -81 -145 -96 0
-181 187 13 142 162 27 -57 22 116 -63 -15 -26 128 30 -51 -139 130 97 -61 178 -75 2 -156 -68 -133 168 102 80 55 -29 -70 -12 -16 -154 82 -98 -135 -196 124 8 -72 -200 -119 79 182 14 173 -95 -197 -60 0
-1 -110 88 93 158 -29 -168 -143 -125 -41 -193 -89 -70 65 133 -114 94 -21 -60 -42 5 82 -32 43 169 136 69 52 -134 17 51 104 -16 -123 200 67 20 -103 23 172 -116 -183 -27 63 -6 -35 -184 153 -152 -150 0
72 -162 -139 125 159 18 197 148 -174 68 -10 21 -97 -51 -98 -163 145 -82 48 157 71 73 -161 -173 -88 -29 -24 -158 -151 -14 -63 -105 -121 89 -141 -74 -49 -124 99 25 113 -185 -36 -69 198 78 32 188 43 170 0
-79 67 197 78 -90 142 166 104 27 198 -56 -158 45 119 85 -93 -123 40 194 -87 91 -96 9 92 65 -16 5 -174 -18 -95 -23 -69 186 -57 44 -190 -141 175 72 154 133 -156 53 149 -146 74 -182 -176 4 -188 0
144 176 184 119 -61 -182 -138 51 129 146 -82 -12 -194 -136 -154 54 -103 66 142 60 -43 18 -68 153 56 8 155 22 192 131 9 64 -167 99 15 -188 -81 -85 -36 147 -149 80 189 38 174 13 90 -180 49 35 0
15 -86 -108 -166 -81 -186 -67 37 87 180 -137 -89 -176 198 122 -68 57 -79 150 -110 130 -28 140 -100 42 -35 -95 -189 119 60 109 8 -47 41 -40 117 148 124 -6 151 -128 111 -31 -120 -21 159 96 -101 -61 10 0
108 -141 -148 149 -116 191 -164 113 -84 -81 -24 -77 -89 51 12 -35 -118 71 -195 28 93 -189 4 142 -138 74 -139 -177 -140 14 -128 188 -62 33 -183 -18 121 -70 -68 165 -43 60 159 137 190 2 -6 -194 -198 154 0
148 -15 70 -177 -89 1 174 124 54 -194 167 180 158 57 -111 129 171 -75 -113 200 -41 39 20 190 160 18 -139 -161 166 -95 134 -127 183 -25 -96 -112 -60 94 -137 153 -104 -185 -109 73 -106 6 -191 92 -46 -27 0
12 -110 22 -97 -65 117 43 -162 -63 151 142 -172 -88 -186 190 6 -11 -161 192 -87 199 -89 13 140 -95 138 -128 -28 70 -154 2 200 188 -121 -153 -76 173 56 -99 -115 135 -113 143 -7 -106 171 152 -61 -81 -184 0
190 121 -40 -3 -189 131 -54 -27 -163 -8 165 38 -175 181 -48 155 -33 68 144 -135 12 116 192 -138 74 -82 179 -57 173 111 197 4 -80 -187 -5 130 -154 9 150 178 -174 149 -72 -36 -166 -114 -164 -44 -119 -59 0
-160 158 61 97 -149 198 -129 -27 40 -174 -161 -58 -166 -115 14 -29 3 -83 150 184 11 22 -39 -63 176 -45 56 152 -179 -109 105 15 -114 128 66 108 -111 -181 -169 190 -124 -33 196 25 -28 131 156 141 126 -60 0
163 135 19 -150 157 -58 -193 -114 -67 -24 144 170 132 -81 -7 -134 -131 -72 -59 -142 185 -175 -199 181 54 14 -147 -179 -69 -1 6 109 27 -82 11 -35 -149 121 33 -93 -31 -117 -49 84 153 -116 -88 -100 16 21 0
-104 162 -96 -24 -102 -64 -55 76 125 -173 -101 74 98 26 -179 156 -114 5 -73 33 -40 159 25 19 -111 -198 39 -80 -185 -193 138 -79 -168 145 192 130 -124 -6 -187 -52 36 53 -169 144 -146 -12 131 127 14 -1 0
-101 -116 -34 82 184 -78 52 -196 187 44 -200 -92 -16 -97 126 -77 114 1 192 -191 -175 124 -70 -10 -38 -147 -35 -7 87 20 158 166 4 155 -41 -149 -181 -64 -173 -134 164 123 139 18 21 -178 -55 2 -146 -112 0
120 44 -189 -14 -6 168 132 -55 143 -13 57 91 -174 193 -89 -23 88 -171 -172 -173 -148 28 -101 45 -33 78 103 75 175 -137 -136 166 51 199 -18 69 -145 74 -160 30 -8 104 123 -124 149 -25 198 -72 -48 116 0
-75 -146 -130 -106 -91 -154 -45 68 142 124 149 116 176 141 -18 88 13 -17 -24 22 181 -55 160 27 -162 82 172 71 90 156 -105 -49 -198 -200 -19 -167 -191 -102 -31 -93 34 50 -66 100 -139 15 -63 121 -183 -92 0
-112 -109 39 127 45 94 -10 48 -104 -75 -114 -93 -68 4 -95 82 163 74 -194 -103 -187 -118 -180 -172 11 1 -115 -124 152 -14 69 -61 -136 88 195 -130 -117 -176 -133 13 -164 28 -155 159 -140 113 60 143 144 -151 0
49 -44 195 99 -52 -53 -25 6 90 186 3 24 145 -43 196 86 167 -109 -182 -173 83 -97 63 -9 153 80 192 41 -130 -15 -107 164 -162 -141 100 -184 -91 -4 -104 151 55 -121 -189 -110 -62 -140 45 131 -92 -57 0
-67 52 -85 196 78 25 175 -59 4 139 -86 29 200 116 113 27 110 177 -14 10 -180 66 92 -93 197 -133 160 11 -124 -120 -57 -43 -38 -15 119 179 129 87 8 71 151 34 -72 -89 41 -24 -61 117 46 77 0
-61 -14 135 18 53 30 132 145 -82 -16 -86 189 147 -73 -114 115 105 -104 -123 -120 -139 184 191 -42 -85 -179 -13 -186 -97 -66 46 -34 -126 192 36 -57 133 197 125 -106 98 -131 112 88 20 7 11 -12 21 -62 0
134 177 -27 71 29 -84 -64 154 -122 -41 -138 -157 168 -5 -4 95 -121 128 31 -152 2 -180 -149 173 -130 187 30 -90 -82 23 188 -36 24 59 -74 -150 -178 -10 40 104 55 -165 39 -18 91 -54 200 -7 123 -68 0
91 -38 133 180 152 -25 48 -193 -192 69 -108 143 5 -176 61 146 -35 29 178 135 138 -65 177 -75 -8 13 81 -172 175 -149 36 -151 -153 77 -67 -147 126 1 76 131 27 -158 -122 92 142 -56 -54 167 200 -17 0
-83 -77 177 -58 -199 -18 -178 -134 -194 -116 -50 122 -106 -13 163 113 -145 -101 -89 155 -61 -27 144 -126 -109 41 -26 -130 -160 -5 200 -88 21 -121 54 -138 129 -196 183 -85 -12 -162 33 60 -2 142 149 98 19 140 0
-4 95 176 -159 198 124 101 169 41 190 -194 -8 -132 -29 54 -136 -130 -48 -131 114 -166 -90 57 -79 -145 -139 119 -135 20 -24 127 153 68 147 46 -7 150 -174 -164 -125 -43 -39 158 89 -21 42 -100 67 179 -23 0
99 -121 69 86 -13 -115 56 -52 9 -129 59 -110 151 -137 100 83 15 -57 -91 -43 102 -179 -34 -134 114 -67 -89 -4 11 25 197 42 88 -183 -194 181 193 -85 48 138 -140 -41 -27 -156 82 76 -177 135 -141 23 0
106 -52 -78 -40 23 -5 -128 -143 -47 -79 -104 -12 -103 116 66 -37 -59 -84 30 -13 -96 31 114 192 -144 -18 168 -58 162 26 56 75 11 -137 -41 -155 71 28 121 49 -174 -94 -169 -195 -153 -48 190 21 63 -148 0
61 110 -187 164 -189 181 -30 197 104 88 -182 152 -84 -43 96 -80 -56 90 2 111 153 -119 155 136 -33 -16 176 31 159 -122 -129 193 95 82 -166 -179 38 34 3 -41 24 -42 167 -65 -13 -162 190 188 72 79 0
190 -39 -64 -159 -117 -189 -137 -194 -70 86 -88 -178 -188 111 177 -158 125 -185 135 157 -15 -31 -8 -165 -148 -42 35 26 -191 -130 -3 -53 2 -9 -122 36 -123 93 58 121 -168 -97 195 73 -110 40 175 -113 5 -18 0
126 128 105 150 -50 -11 -95 -24 13 -198 135 21 53 117 73 192 -78 57 155 55 -99 157 22 59 96 36 158 -186 -185 -108 -72 -189 -54 -127 -176 152 -118 -182 64 25 -76 92 15 -26 -93 -45 82 90 -194 -101 0
-130 -122 -173 137 101 133 -14 168 13 196 -119 -57 169 -176 120 195 149 185 -95 93 33 -102 -198 94 -100 -163 -46 -170 128 60 39 81 -20 -70 104 -134 -132 26 -58 -74 166 -174 188 199 187 29 -42 48 -79 27 0
-176 -96 -184 -122 -17 -101 104 -59 -187 91 70 -142 168 9 -2 134 178 199 41 152 -44 -124 14 -133 121 76 125 -108 -67 -37 -33 -52 -69 200 150 92 -48 78 177 -167 -198 138 194 -157 85 180 161 -120 95 -3 0
58 -113 72 39 29 194 -125 133 138 119 38 141 -155 -91 162 35 -20 -128 -25 145 123 -139 195 -52 -16 164 84 96 12 -82 73 -98 191 -15 -120 156 90 24 110 50 70 173 122 -166 117 -48 -92 -131 -183 132 0
92 -94 72 -131 -140 23 -91 48 177 -16 -133 96 -121 18 122 -38 45 141 -102 97 196 -106 49 -184 -118 -46 -194 159 90 -172 178 148 -197 -74 28 -66 35 -22 -139 -153 -85 95 166 -171 -179 -156 -10 -151 -183 70 0
137 129 -29 194 -128 -104 22 158 -109 134 183 -90 196 -123 66 -139 -87 74 73 -122 187 -155 186 -153 -160 -34 -69 -33 -167 138 72 -156 101 -18 70 135 -107 -180 -195 53 102 -132 171 141 127 161 67 79 81 88 0
53 -159 154 17 155 -173 -46 107 63 123 137 40 -86 29 -162 -35 90 -42 142 83 32 67 56 -31 -77 151 84 161 -91 -34 39 132 27 153 188 -127 -199 -147 -131 -97 -101 64 87 76 -149 38 -110 20 -179 7 0
128 -34 102 42 -188 -19 67 -103 53 180 -200 131 -122 -181 1 -123 -81 111 -76 22 196 125 -145 98 177 -54 44 186 89 48 144 100 114 -105 -138 -27 3 91 -160 21 4 183 18 -78 -192 133 150 -30 137 -28 0
-93 67 -158 81 123 -85 75 -116 150 102 126 -49 -156 -186 192 113 159 -22 -4 -111 41 161 190 143 90 166 -57 163 -187 -43 -71 191 74 101 -155 -131 -56 -145 180 157 -83 153 -130 -44 -51 193 1 37 141 160 0
61 48 -161 52 -30 106 -50 162 177 134 100 -179 129 -74 87 24 -8 -7 157 194 -75 -139 159 143 -182 -149 -98 185 118 173 -56 -155 -124 -2 -68 -101 16 110 -91 197 183 -111 105 76 -168 120 80 6 126 71 0
44 -83 -163 -121 -90 -150 61 193 -170 -161 -30 -132 65 -89 13 -58 10 171 123 -147 -143 -98 128 -77 -185 -151 101 91 108 -74 145 53 -38 140 -200 -162 43 -6 -26 131 -165 169 -172 180 33 -135 70 73 177 127 0
-128 154 16 132 -195 -98 10 -17 -96 33 2 31 35 -103 -8 -193 60 -89 -102 -187 145 -175 -87 -84 -78 81 38 200 -69 -82 65 177 -79 161 -23 119 129 66 196 -44 115 -107 74 -179 165 99 -62 141 -13 83 0
93 -57 145 -137 97 91 -84 160 159 -86 -19 -198 153 -143 136 52 -197 -37 102 175 73 -110 184 -11 176 -96 -173 -133 -119 -199 104 87 -103 -85 -108 -100 -167 112 -149 62 180 -171 83 42 70 -33 125 -29 192 146 0
-188 111 -194 34 -11 -57 126 62 176 27 -177 -60 51 93 46 -167 -107 134 168 77 -186 101 -21 -115 5 -41 144 159 105 157 -91 -171 161 -100 -108 -9 -65 -181 98 33 -156 -14 -142 15 87 24 -118 58 193 152 0
-77 -73 160 61 -36 -7 -50 -111 37 -102 -79 -99 -198 163 1 166 200 -179 143 -156 23 -168 -34 2 48 -65 -119 -30 169 109 115 -177 -41 193 -158 70 -188 139 -142 -192 -59 -136 -6 -164 -17 121 -67 10 191 -42 0
-13 -34 79 40 -49 -184 63 196 -189 -14 -133 -151 159 -143 -125 -137 -37 42 50 -26 135 -139 -132 123 80 -20 -61 -98 -117 -195 -67 -55 130 -60 -126 -66 17 102 147 36 101 -28 39 18 3 48 164 -128 85 -46 0
-89 -129 -156 177 12 -91 144 195 165 -115 -190 -145 -136 142 -181 -7 -41 187 -16 9 110 -189 -37 -55 158 -183 -57 122 24 26 191 148 83 -62 8 -153 72 50 92 39 -61 67 167 11 109 75 175 179 -193 64 0
168 88 -107 -31 -46 188 37 108 -101 -3 200 -95 172 80 -110 27 62 -20 -98 -118 182 -144 45 -185 131 198 111 -162 -51 87 -13 148 18 -25 189 173 -121 -49 139 194 128 191 123 -159 -68 -132 105 -89 147 76 0
-142 -170 -105 93 26 85 186 -157 -25 177 70 40 124 17 68 171 38 -169 29 -134 22 -15 41 -147 196 35 -145 81 -82 -58 -43 174 -90 135 116 94 -197 101 110 -152 23 56 -27 33 -125 1 92 -159 -65 60 0
-88 120 -176 84 145 -156 57 99 106 -30 3 28 171 -187 -36 -77 182 15 -122 -38 87 191 91 39 -190 146 -104 -147 108 -4 -192 -200 17 -56 47 -119 -113 -194 60 -131 -32 -183 196 -93 -89 -27 168 -8 -20 -46 0
-195 -48 -57 -9 -23 158 -104 95 -72 135 -84 -89 -88 5 47 -53 58 -20 -153 157 -49 -194 147 63 155 -29 34 -122 76 6 37 -93 -178 -187 -163 38 -145 200 -39 165 110 -40 85 16 -15 -12 120 133 26 -129 0
94 98 35 -192 -17 -182 -133 3 124 -200 -10 60 -51 109 -114 -167 132 -69 -49 -159 -100 -153 178 184 110 157 -86 -176 79 -7 30 -14 -23 -83 -173 76 198 -9 135 -134 50 -65 80 104 -117 111 131 101 20 113 0
-173 115 159 164 145 -151 -93 -147 71 169 -143 101 -16 -36 -85 102 124 77 98 188 -20 -127 75 134 -172 -105 95 88 -57 33 120 113 92 49 -65 155 -154 176 29 -171 -73 180 162 52 167 37 86 -15 -19 -60 0
-181 48 19 -125 -173 135 192 180 -86 147 102 -115 -199 122 152 190 89 4 197 -106 -148 -172 -90 -91 126 12 -127 -112 -100 -98 -26 35 31 -144 -117 -114 -55 -22 3 -62 -93 -80 18 161 -159 -184 -58 -176 -87 -64 0
198 76 -10 -96 150 135 -100 45 -37 -32 86 -72 -151 47 -200 1 173 56 -183 -186 137 115 55 179 -112 -161 38 -77 -5 181 -36 69 35 128 -49 23 -8 -174 -176 -97 -160 141 136 162 170 110 41 187 101 16 0
-104 117 7 -106 152 100 -113 145 -108 -116 -136 -55 73 167 47 129 -99 197 -94 155 -80 126 -62 128 -148 133 -20 -25 93 -103 109 -17 -195 57 199 -96 -110 -198 138 -130 -35 -180 -160 -178 -164 -171 71 63 105 -191 0
141 -180 -163 -22 18 -112 193 108 158 -60 87 -167 -21 57 -140 -61 58 34 -118 -13 95 -125 -5 155 177 -6 26 -88 70 -138 90 74 194 -162 -145 81 16 99 42 67 -147 -20 -66 -128 14 148 136 -109 100 -98 0
38 -83 -135 -161 -6 162 -148 -184 -197 84 40 -26 -104 114 -14 -129 198 170 164 -92 -31 -117 171 -100 156 72 19 -41 -43 136 -115 183 46 -78 58 33 126 -29 56 116 -7 73 -64 17 47 -105 150 65 18 187 0
-199 83 -174 -191 11 162 -54 -82 99 90 32 124 102 51 -29 187 159 148 134 39 -94 92 -117 194 3 73 -33 -22 143 150 125 69 -120 -128 86 -180 -184 -79 56 97 137 -48 19 -49 196 -6 27 121 -66 -158 0
-125 -103 -100 62 148 13 -191 137 -112 -149 -167 40 -53 170 94 -20 183 -139 -128 -45 102 -55 158 58 165 56 -76 -127 -77 -72 -187 11 -19 150 -93 12 -104 80 88 196 79 162 -129 -178 -117 -171 -63 143 -109 -157 0
37 117 -5 -153 59 -137 -114 -49 -141 -135 -90 -61 151 -47 -78 155 139 51 -67 -163 -71 -192 85 -46 -168 24 -56 45 181 -126 95 42 -165 -189 -142 116 -147 -22 -112 -50 -80 134 -106 156 -105 200 54 -87 23 96 0
-9 -79 101 119 35 27 -181 -132 104 32 -86 -88 -140 -34 174 183 -124 41 18 -7 -102 128 52 150 109 -130 198 1 188 -54 -31 -108 197 -89 -47 -15 12 92 3 6 -110 -45 -157 -144 73 131 191 16 -49 -114 0
-61 -141 -170 -105 -54 111 60 124 -28 43 -1 -100 -55 13 -160 -98 156 -38 108 122 96 161 -177 101 174 63 -132 133 185 53 -119 -66 20 -72 168 -59 22 -199 -102 -56 -68 151 154 82 -200 -163 79 -49 153 24 0
80 -9 101 -29 -64 22 -2 -42 1 -56 158 -171 -44 30 -140 -61 -74 -170 123 169 88 -12 24 -149 5 -75 -109 116 -133 -46 -4 -70 3 93 85 103 54 157 83 194 127 198 71 187 -139 92 -53 28 154 68 0
80 147 -173 118 -14 -142 -30 68 -82 -45 1 183 -137 50 116 194 187 143 62 -184 -23 -119 83 7 55 53 -72 41 -162 61 33 117 130 -87 180 17 -164 -69 -37 101 -74 -120 -51 199 -22 -127 -181 185 -20 86 0
29 -3 98 106 -113 65 -12 122 -88 168 100 -30 165 -190 -52 189 -134 -198 -161 -46 -66 185 140 175 78 -53 -149 160 86 28 80 -114 -199 120 196 -14 -126 93 -34 60 156 39 -44 -141 -51 -90 -184 -75 -117 137 0
158 7 83 -51 151 199 152 -55 186 -190 178 -154 4 -96 164 -169 117 149 26 37 41 -185 -168 88 166 138 -17 118 91 -143 -33 140 40 -29 46 172 174 147 -12 197 -56 -61 79 -146 192 -163 38 -126 -50 -35 0
-74 159 -153 30 27 -151 -1 90 -70 104 37 119 -139 -36 69 17 -45 2 -49 31 88 192 112 196 -29 -48 155 40 -127 -47 -10 169 -54 13 106 -61 -16 83 -46 136 101 -133 184 -125 117 -78 -73 -82 12 33 0
118 -164 -105 -1 -23 28 43 -38 154 155 175 124 -50 -138 22 -37 -151 93 6 -110 -19 -101 12 121 149 -133 -17 71 -84 20 162 -54 -65 -142 35 53 -117 146 13 -166 -200 -107 24 -187 90 40 -14 85 99 64 0
119 -75 -88 109 -87 27 -130 163 164 -1 -143 -49 160 96 141 161 58 -35 3 -25 -41 -92 -192 -128 21 144 90 52 -104 -74 20 151 15 -121 174 -118 -129 50 -32 -66 -122 81 71 94 -117 -79 47 -176 -39 171 0
-45 40 198 -102 137 -72 -57 -2 182 82 -69 128 -193 70 -59 94 39 53 -16 -79 27 -125 132 -18 148 192 -74 -12 -166 157 142 -191 71 -1 -81 -91 -66 -48 50 114 140 -86 -67 184 52 -110 -195 -34 -113 -49 0
-51 -44 -72 -116 117 86 89 142 173 87 177 -192 50 -135 22 -75 102 -159 41 183 37 -126 -12 -134 -144 99 -21 -158 62 -174 48 -85 82 57 141 81 169 98 -29 92 -71 -125 -121 -122 36 -18 -56 34 199 -16 0
176 186 187 42 25 -39 171 87 174 189 55 167 -97 -22 -104 193 -146 122 -66 -143 -133 188 -184 -195 -59 -170 191 -37 162 126 49 -113 -169 -58 -9 31 84 -131 151 12 78 -155 80 -32 166 149 -124 -115 -158 -3 0
-133 -17 -55 89 -20 -40 -60 132 -61 8 153 -37 -171 23 158 -139 72 186 -137 25 -29 -182 113 5 -118 142 159 10 87 119 -22 -145 -35 65 -111 -67 170 2 105 -126 197 107 57 -188 -122 -173 -98 -62 -121 135 0
