c Random CNF formula
p cnf 765 86
-655 391 -550 77 256 170 694 -120 38 -188 502 649 -556 -377 85 211 -663 155 -520 331 -428 -474 -82 432 638 -413 -492 -725 506 -762 404 -464 -683 -283 729 -679 421 -116 -265 -764 526 327 -8 718 754 407 -210 79 218 -111 160 -650 382 662 298 456 -176 605 710 -177 -316 -634 -94 159 673 -44 739 261 -328 -623 -35 486 -3 78 278 -459 379 103 -562 -529 -676 -345 -366 300 220 656 -207 320 -255 273 617 -505 -664 599 602 -448 306 -373 -285 -652 -469 -426 537 498 -97 -262 -700 235 387 -703 240 -444 -552 -168 -501 709 396 524 291 742 -334 -415 642 -538 313 -252 185 -225 -362 -325 -89 -560 614 -357 48 -323 -722 -681 604 -14 121 -361 219 -86 260 -589 110 -612 164 -96 -332 -564 -619 582 223 305 -466 -127 -133 -341 -704 -414 475 122 493 87 446 -723 -721 600 -575 301 -100 -470 90 -687 -543 108 -269 390 -625 483 -632 -437 -705 -132 737 746 171 -247 137 -708 -581 282 349 216 734 230 329 -183 608 -516 309 294 500 152 706 431 583 128 -290 -405 616 -651 -109 372 -56 -585 -521 299 438 -270 -115 -626 -412 -37 74 416 408 66 491 98 -57 -450 -756 -68 -699 750 -480 264 430 -630 287 558 -118 -150 -376 -131 -457 -234 -462 165 -145 -102 -250 -669 173 -508 -333 -113 -715 509 -467 677 135 658 -167 -7 -367 -530 46 228 -574 -579 117 -601 -370 -494 514 -586 611 353 -254 259 643 -397 477 -221 535 -215 -478 548 33 576 -389 -534 -27 -30 -735 -716 314 -410 -419 -713 488 -5 195 143 -595 58 -192 162 -214 311 -47 0
722 -223 -76 -687 576 187 509 -28 708 311 -146 -654 -226 -60 -703 -477 743 150 630 -245 40 405 -291 269 -323 168 163 -330 270 -535 -683 55 519 15 143 674 -553 384 232 -303 688 -122 511 -376 -74 -533 -696 327 -118 39 -183 629 -609 -415 -171 -622 -536 672 420 545 -156 205 332 -694 -632 -741 -12 485 641 520 698 -66 -51 234 -45 -67 -201 470 212 -138 259 -562 -21 -489 515 -648 -299 157 368 429 -577 -296 475 521 -20 -177 377 -94 -658 56 59 697 -61 -346 424 349 174 729 -109 365 9 438 -623 -63 228 54 -660 -79 -560 -240 -30 267 -469 563 -750 -116 -86 670 -699 34 680 526 -723 381 427 -241 -451 -656 101 -394 -238 513 -465 -527 57 -367 246 -498 6 408 -373 284 -645 564 217 -149 712 428 -152 -313 -482 -182 356 -135 574 65 104 -529 -124 -318 -728 664 -542 297 38 581 391 347 -567 -716 93 -84 -734 435 3 413 249 1 653 186 395 -272 763 -274 -756 158 -504 484 -198 752 375 -314 -732 326 407 556 283 289 350 -286 -271 681 679 570 -719 546 285 453 222 -646 -159 129 282 -403 717 300 456 -199 -105 -406 551 -444 -549 13 -44 -250 -548 -266 426 -532 592 440 655 72 372 -29 650 -746 252 -185 -18 487 125 -141 591 -26 479 -200 244 620 416 191 -302 -353 742 -565 597 675 197 -254 309 -371 -32 -397 409 434 586 -276 579 538 -480 -358 288 678 -247 -457 -702 -715 -348 298 -87 172 -236 -281 689 -242 638 -5 -594 700 -374 100 69 -714 132 -603 292 651 -144 667 466 -209 82 -133 -328 0
236 468 -452 360 578 -109 -94 -457 400 -168 -530 -116 -435 107 577 178 476 -383 584 701 334 623 101 627 532 -145 78 21 -562 -170 671 -548 172 288 60 326 108 -370 420 319 -668 -176 -81 -760 434 -601 -115 -487 677 402 680 -371 405 -85 296 550 -347 -514 -718 -546 687 449 -93 -459 -699 -603 44 -722 227 -646 106 201 521 -16 498 -112 -727 -744 541 156 -356 -481 491 613 -137 258 408 -690 67 608 9 -72 169 473 -314 674 -564 -287 714 484 262 -553 -206 424 516 -428 524 763 -650 -517 -401 -302 203 282 -153 381 -594 -558 265 -221 629 -587 -292 469 -411 -752 742 76 -88 -492 643 -119 -662 586 230 -445 -733 -192 -654 -187 286 297 -598 -362 -190 -49 -417 -573 -100 500 -511 547 174 105 -131 255 442 263 -707 712 600 -65 -143 556 69 698 199 329 -256 -628 257 272 597 413 -71 -377 -415 -336 458 -241 -615 -246 618 -672 -762 392 545 -410 -730 -739 205 -74 231 183 -706 -633 589 -248 -123 155 7 605 -761 -695 -343 219 -36 485 354 290 325 -33 531 348 -118 138 700 -289 -526 43 -327 97 -228 66 -579 -465 649 -520 741 658 736 -619 298 418 -136 715 443 -96 717 -398 254 -34 -50 -560 -416 321 -705 559 77 -233 -637 -585 300 -480 -513 -720 359 -692 -666 505 -344 243 -164 -366 -132 -141 630 204 379 11 -30 -732 -636 446 -404 -667 -588 -614 -497 -194 412 557 -80 -285 -572 -82 -689 409 -124 758 139 51 -518 -640 83 -430 -196 -58 18 743 -126 -32 -504 -195 576 595 510 -693 450 494 252 5 -210 -20 738 0
24 -202 601 229 558 -150 33 508 763 137 62 -602 498 -617 53 -616 -553 131 479 -695 -20 561 50 604 320 -549 594 -687 -82 392 -242 -181 -143 439 -3 -519 -589 43 -214 -444 629 263 164 162 -160 -510 74 18 -97 -283 642 398 621 -560 -38 -443 576 714 -698 568 -474 -251 679 424 351 243 -512 -86 477 40 548 359 -221 -575 282 130 73 -612 -211 354 49 -391 -52 -454 540 -408 156 -484 669 552 585 -614 -250 -563 196 689 54 511 -472 267 -44 -366 -365 742 -278 -386 403 -32 651 -607 -658 -289 -175 743 290 -343 -57 79 370 -360 -667 166 586 694 -432 -395 -504 -301 441 272 -286 731 699 735 -460 402 678 222 -316 413 -212 -545 415 241 -34 -688 -625 -377 -664 -652 729 334 -726 303 -570 -139 -756 -730 -66 -205 555 -410 165 58 -132 502 -173 -279 -371 -59 497 -228 -719 367 -157 674 662 30 -208 76 -634 530 206 551 -446 -234 -378 -597 -167 -358 -478 491 -375 -765 433 200 711 -494 -261 -526 717 312 -633 259 -19 195 -583 99 -168 138 -115 515 -741 -204 106 490 -405 417 -592 -704 666 -660 -582 709 -376 -754 296 84 705 635 -531 -693 -65 -300 171 135 486 -449 67 45 275 501 -120 -516 -111 -304 554 127 -362 141 -98 556 638 80 197 339 -94 134 239 -423 -108 -470 -190 -485 277 562 -216 -755 83 -471 536 -740 744 -388 81 -593 384 656 -753 -686 -28 -488 -573 -457 -761 140 -328 -281 353 -192 104 -496 442 -297 -363 -724 -645 -170 475 -480 649 -647 -225 -751 -69 -218 -458 569 -335 -284 119 566 136 -425 702 0
-259 459 31 661 -600 -546 -745 -618 380 -592 -440 -669 -737 -23 579 -555 -746 -615 -109 295 159 -403 -715 683 32 175 -708 337 14 -62 46 211 -496 -105 -146 487 -96 -240 -559 -266 420 -220 -517 -644 172 650 389 392 409 156 -181 194 -366 430 -664 -333 73 -123 -629 44 -77 -374 -516 -554 369 -612 -302 335 -117 198 -110 -634 -207 -599 -205 383 -20 -292 -755 -524 531 -313 -419 -174 352 605 571 -489 41 501 -458 -195 720 283 -412 -391 -91 -219 -296 11 526 24 -323 441 -284 -505 -343 70 15 -271 162 316 700 -730 -51 -348 713 -340 -585 580 58 -663 128 -641 688 -191 404 566 603 -370 359 -285 -273 -472 653 -754 673 -681 -751 -727 327 86 83 557 627 620 -272 593 -330 -307 502 120 -485 716 476 -193 351 -572 -22 -317 -260 -528 -347 25 -358 464 167 757 -27 189 -636 -565 65 -346 243 305 -108 765 254 176 -590 -152 -154 332 -452 -47 577 -544 535 235 473 578 -49 171 -536 -56 -721 617 718 -386 -611 393 30 -325 387 164 -241 -160 102 582 -334 -734 478 -122 -645 -545 -379 173 659 522 344 -503 368 729 -362 454 -88 40 717 99 736 -252 -169 161 456 -642 -356 -59 -363 265 82 288 133 735 -69 429 129 668 -177 662 -145 -165 -180 741 -139 294 -320 616 461 589 690 -90 583 -192 -17 -728 388 -308 -212 427 588 184 400 519 8 125 106 649 468 -331 -209 619 453 135 540 -291 -632 314 -297 759 510 654 218 360 -257 -651 274 -687 -698 640 549 637 -725 -731 -113 -281 68 -141 -514 -100 -758 373 -508 248 104 0
240 -115 567 -246 723 -713 -693 -453 162 -601 -402 556 -505 -606 -183 658 308 475 -5 -357 -376 -594 158 -460 560 32 -427 -28 444 662 -490 542 616 354 -60 -751 -122 562 -67 -541 496 160 -353 37 597 -213 -748 -414 -159 236 -181 -44 210 -71 -679 403 -492 617 -712 626 410 96 -129 143 668 -504 -749 356 188 -254 708 -344 -573 261 714 -715 -265 386 517 -282 -216 441 -207 377 -426 56 -193 -727 -670 11 738 -446 91 154 -419 10 -486 570 -362 31 139 301 -221 -292 -687 -676 680 -189 -692 -177 27 47 131 -523 -73 -288 -63 495 -21 -201 666 250 543 -319 130 343 -6 586 -652 132 -245 434 16 -121 641 -382 25 173 50 -215 568 -367 608 688 241 -436 -550 743 -298 70 -12 -79 -263 566 -389 -456 -174 58 -735 582 -728 -124 218 81 690 -470 284 684 -294 602 256 -408 540 104 237 583 454 233 -740 649 477 -497 -760 -54 -76 722 -128 150 202 144 341 -635 374 563 762 633 -697 -431 110 -498 704 -644 -326 -733 -198 -212 133 -15 440 473 672 -720 429 -553 -107 609 -317 309 275 -630 -66 559 -442 -307 38 99 -97 175 739 447 -390 -622 -125 472 393 577 531 -548 -186 52 -471 659 -141 -264 156 48 -339 80 109 511 -724 -252 -741 169 234 -195 -34 -506 494 296 632 -552 209 628 569 -526 -381 -368 -111 -613 642 318 753 -765 -701 -520 -370 -350 24 -82 -242 -510 -305 -439 228 499 -8 -211 203 489 310 -503 -452 -574 464 -303 547 -262 -375 576 346 299 -747 -710 -746 324 -137 763 304 22 726 -468 -98 330 -219 0
-656 -493 756 22 289 530 476 -53 603 -247 64 337 606 686 -480 -303 -482 -471 -16 -457 -50 -54 -351 283 519 49 597 435 614 72 515 565 464 -123 -189 13 420 634 128 -336 576 151 83 -103 -84 272 -658 327 14 111 271 733 194 134 363 -751 349 -139 -673 -441 505 -401 -280 512 698 -229 -532 227 325 566 -104 5 -710 -339 609 -40 -383 -749 703 -353 405 281 623 588 454 646 489 740 -391 -71 299 -697 738 449 -372 546 598 129 20 186 56 -32 -11 -96 -4 -21 -513 742 58 403 -308 475 719 -628 764 523 -502 -382 -63 86 428 -314 -537 -694 -209 -249 113 425 -288 -504 -419 326 274 564 301 -246 729 258 251 -642 -750 414 683 257 12 -6 25 343 108 754 -455 397 -15 214 368 -68 93 -571 -292 663 -371 -680 -456 252 -577 -421 643 -629 -640 121 518 -631 255 500 223 707 607 -357 332 448 126 426 -693 -340 465 -467 269 315 -181 -612 481 626 655 -604 706 431 685 204 30 203 136 747 -434 161 -165 -46 216 581 18 -605 472 436 569 273 285 -70 -406 28 169 193 438 142 -479 -208 -118 728 31 -496 -352 432 -171 182 625 316 404 -380 188 -439 -291 -650 687 466 627 -540 17 -175 726 -335 635 -39 378 -318 -78 -225 -373 582 -450 427 -36 -60 -196 -244 -145 688 61 -462 -276 548 -702 -676 -29 -560 -474 294 76 408 -494 262 -220 753 -488 -763 -549 429 589 -107 -492 721 416 -735 595 636 -331 -632 377 594 112 -440 -520 184 -529 -508 -298 -279 -362 -584 507 -198 -328 473 320 300 -696 -684 248 0
462 -393 -107 345 -232 734 -168 -95 299 -471 413 -68 -468 -38 259 719 164 -336 273 -178 303 -585 96 -358 -504 -313 2 171 -184 -549 99 189 -319 -323 -167 -651 435 658 47 478 -423 11 -759 335 -752 -343 142 699 -415 470 -191 591 694 71 -12 -488 748 -709 -282 238 580 477 -254 76 509 264 120 371 268 -629 309 58 514 -537 321 196 -707 -322 159 -539 746 89 -200 546 738 -725 -568 -30 314 -438 -82 -758 332 211 -441 98 -583 -735 -401 -420 18 -62 139 682 366 55 -676 667 -346 -442 536 32 -596 -700 715 -46 -677 -222 -224 304 395 639 -363 113 391 275 -392 -750 -245 507 110 -194 678 -498 202 75 632 -486 373 -193 -449 -455 370 665 172 -688 -418 -606 565 -280 -692 -318 -603 -502 679 -426 37 199 240 -377 -365 -547 619 43 -600 1 -295 510 24 -284 560 445 187 -608 -19 36 740 762 -403 -662 751 -316 -237 -56 261 198 578 624 -582 289 381 121 466 -92 581 -622 -382 494 598 -74 344 595 -542 374 527 430 -561 -165 557 616 526 668 -760 52 -590 643 306 485 496 7 749 -473 144 -756 -602 -711 279 741 -620 669 -744 -563 260 -652 -761 -143 666 -649 -697 -281 489 60 326 -628 -64 48 -745 -35 195 86 -412 -575 -674 -663 112 541 -691 755 153 177 114 625 399 -283 -729 66 -14 67 -533 566 -117 -637 670 -436 136 157 638 225 -531 -705 6 213 84 315 500 -288 -552 -339 -587 31 -387 21 690 -169 -233 -170 -434 -627 -417 328 -457 203 -618 -278 532 451 -656 276 -429 152 589 -493 484 402 -569 0
-74 -506 -346 -501 343 -441 -312 -163 537 20 -67 -261 101 651 331 220 -753 -539 361 -215 662 672 -254 -351 412 737 -236 -703 -5 515 -313 286 -582 377 -383 738 -395 -196 108 434 239 -194 -300 -374 450 -421 -604 -381 -54 -214 -578 -135 469 587 260 -529 -746 105 370 -575 291 583 146 -317 -736 -405 566 225 -36 -551 724 -389 -731 705 -187 -422 350 -41 -177 -221 386 129 -48 150 103 -764 366 502 598 516 550 208 -320 -542 182 -160 -765 176 -417 -661 -721 302 130 59 -538 -316 673 -235 494 -647 -165 606 -759 463 -18 -109 -123 548 246 10 -675 448 -298 478 -52 -656 -725 507 372 -115 274 -50 -533 304 -21 398 458 -482 -411 240 107 424 650 -230 -82 438 -400 102 364 158 -272 121 645 -156 615 487 -429 -466 -144 -517 -640 -495 358 397 347 379 262 -524 -467 324 -113 -166 339 -268 139 195 -22 593 -276 -307 734 39 151 730 168 -14 148 288 -277 491 -635 437 543 183 -127 451 257 -152 60 106 -227 -719 -628 -492 420 154 -296 -580 -199 200 408 -264 -212 510 35 -511 -259 228 -310 -683 -396 -622 -330 488 -197 -613 428 70 172 -576 -337 174 344 394 -621 688 570 740 641 -523 -623 -280 -390 -654 -462 -627 603 -568 592 -739 -564 -616 407 -147 -388 -282 87 273 -597 15 -508 118 100 -159 -685 565 -322 299 761 439 97 696 436 -525 -244 -626 547 -667 455 -691 608 -219 -157 631 243 -61 -694 693 -573 -191 427 -173 -744 -611 -503 -44 -595 -321 720 19 723 -535 -698 224 -365 256 -349 658 -213 401 88 589 37 504 -53 0
-530 -601 -75 9 -364 392 517 -316 -381 606 25 -285 -717 57 82 589 -684 471 509 -757 -398 -230 701 578 -260 228 -593 -617 -241 377 158 470 516 -750 603 426 615 -345 -745 259 -351 302 522 350 607 404 -198 -688 183 360 -307 -610 762 -489 -119 -472 -752 247 -244 246 592 80 -123 710 -305 723 -644 -600 -720 293 597 7 104 417 185 49 -506 -146 -187 -287 -623 60 -686 -661 549 -143 -27 -52 363 537 255 79 -698 221 465 545 490 -338 526 429 -235 -641 -494 229 22 -341 -174 669 -66 337 42 462 -558 -620 591 668 -38 -564 261 -327 588 -400 -132 -96 -311 -628 -313 436 -725 535 529 140 54 268 406 300 298 47 1 639 -271 331 309 -576 542 -454 473 245 -154 -438 742 401 567 -163 -626 232 -374 613 667 98 216 675 -99 -488 612 138 -443 586 -251 554 189 -91 569 -67 -15 -396 697 -468 -37 195 280 -159 447 -29 233 -65 -452 727 -533 -266 175 296 -176 -239 -580 674 673 -448 -23 -434 637 663 482 168 -485 -424 162 -728 227 -676 -315 234 388 543 -534 353 -18 504 425 573 -756 -106 -523 -370 -716 348 500 -100 719 -8 -148 333 -709 645 -217 -59 562 -188 -211 306 201 -53 463 -181 -402 -492 466 572 222 -525 -169 427 -320 -236 444 334 -450 -103 -735 -739 -126 -191 -751 321 -291 -456 -692 62 -677 653 536 113 34 31 552 -475 270 -131 -571 -160 357 699 46 730 36 433 670 240 -621 -248 -208 415 90 252 137 419 26 19 10 -72 -385 -527 446 -691 -403 387 -150 249 328 -182 -680 -343 303 -618 -383 0
-461 557 680 450 -302 147 -89 -298 51 -444 652 517 -227 -537 -689 394 -545 600 -625 -410 -136 132 -601 -418 591 324 -425 -170 216 420 568 -735 222 588 -508 140 -108 -399 -737 260 -262 234 -187 99 728 -127 -543 164 -764 -563 -21 639 -388 -584 449 66 523 319 -703 550 573 257 -205 -538 -668 690 156 -368 -649 126 20 -233 -281 -357 -213 637 -329 525 556 12 -612 -597 -656 -374 -558 -532 -206 -323 -752 -310 -719 68 -391 -142 37 -500 -346 197 -105 -569 -226 2 512 23 -165 -521 687 371 276 700 -272 -221 -644 -407 -355 -242 385 279 -350 194 -446 -376 -74 15 -341 -175 -675 348 125 -663 -381 -309 -416 -71 -669 -744 -202 104 31 -404 -174 -511 -653 167 282 -453 -740 -151 469 583 -141 487 98 688 8 499 699 448 128 628 -651 -723 -494 -363 -516 -327 -102 -466 79 -76 43 69 -90 741 271 -33 623 470 55 -209 -241 501 -259 -129 572 -3 263 711 95 -582 463 -255 -275 277 -413 362 497 657 -691 -10 705 123 -154 620 -54 659 163 707 -504 -75 85 590 -716 -152 -58 -421 218 -670 632 -97 708 297 -70 415 261 -762 -603 614 200 510 230 -274 153 229 566 172 -481 49 217 403 335 -185 -489 -396 733 642 528 109 -431 -182 -580 333 300 354 721 -289 -345 265 236 527 316 -406 -401 -471 -286 736 -326 674 -378 655 117 347 -56 -576 565 121 -433 713 610 -578 169 -195 -765 61 78 452 42 135 586 365 390 -190 14 671 -478 63 701 -724 397 -332 -393 571 514 358 607 429 -73 -339 -738 524 -107 477 -758 505 673 0
-306 80 335 -667 -713 234 435 156 -583 661 -208 -690 123 -640 -124 546 462 -334 -678 735 -221 5 434 54 -753 16 731 173 33 -554 89 -241 440 -736 -60 -280 439 691 -716 -261 -529 -754 383 61 664 -155 498 -739 181 615 -266 -126 -161 715 503 -608 -353 -217 -419 -188 -496 -685 -520 390 -478 -628 -247 -67 153 577 -579 -151 250 193 118 -399 -422 483 340 -609 672 -149 172 284 588 357 -57 -622 -116 375 -69 236 -697 -635 294 -443 -137 -122 -187 121 692 -263 278 604 -104 -253 -337 -255 -571 -704 -676 -506 -120 -425 -318 282 487 -670 329 -569 81 666 545 305 -125 205 -176 650 -323 -576 -8 -86 136 -727 55 452 -471 -65 -726 681 -752 70 714 763 -455 209 760 -519 219 -361 431 -267 -505 19 542 -759 607 561 -343 73 -593 -360 541 -128 311 -626 516 463 91 -179 -578 -477 12 -572 423 368 723 730 191 -242 -481 540 449 -222 -459 -44 589 451 -300 -414 480 630 -164 712 -706 -658 -195 -675 100 -539 -504 -654 -488 -611 746 436 96 479 392 168 558 -406 372 223 130 460 -25 376 -633 -523 303 182 140 -64 559 38 -407 680 -210 534 -21 4 -618 -332 525 36 -382 -708 526 591 277 501 29 287 -272 761 -717 -446 -252 -580 -655 -102 744 -211 756 -9 747 -389 465 -598 639 281 197 696 351 600 -34 -138 -722 686 52 -30 -336 -742 -78 -322 -157 -532 133 -538 643 150 -725 -249 163 286 365 -512 625 -370 -566 346 418 -515 -599 543 458 671 -509 -575 -709 -623 331 751 -345 233 -92 355 -103 513 262 -141 647 665 207 0
-339 -634 498 -330 -121 -608 340 -168 -502 556 568 -404 260 -71 -151 -506 -322 529 57 669 -445 -675 -537 -495 292 -101 -79 -206 240 -423 -93 -463 111 -505 577 170 -533 150 535 -120 -497 -23 131 -582 6 -623 309 -325 701 476 1 -149 62 532 -243 370 -693 -507 39 629 -690 378 592 466 76 -141 -598 -96 677 736 -408 -323 -248 673 203 -688 -618 426 -342 99 -202 410 182 -541 442 312 290 -128 -314 -256 -153 -428 -655 721 -610 461 384 334 611 -578 -383 648 225 -119 156 -262 -625 -644 -222 14 -737 -102 -376 523 -697 -177 441 180 -755 -134 -702 -59 -678 -139 -425 -48 244 548 -424 -197 732 -264 129 682 146 -492 744 -234 -315 -483 -605 369 667 -374 -333 -552 -518 178 437 282 602 513 301 -454 -253 77 -573 346 122 110 -274 -545 -273 64 175 717 -500 147 229 80 299 448 320 -171 318 192 -140 233 757 -560 167 116 300 -263 612 275 762 -516 381 -631 -488 487 -174 148 -261 672 -520 407 -249 -571 -730 -344 22 185 -475 -397 -302 -490 201 -55 -230 -27 501 508 731 531 -108 -433 -336 -396 -389 326 -510 -366 245 -283 525 564 347 414 -11 -621 600 661 -473 -66 -82 514 -522 -709 443 -165 -341 -468 204 -359 -421 -237 704 -4 -544 118 -539 -223 -402 387 316 -642 401 328 -104 741 3 540 31 471 576 -310 663 220 -287 -324 -84 694 112 -47 412 451 -372 -708 -452 -214 696 -570 -286 580 -575 -184 42 -35 -551 -450 364 86 727 -21 -716 622 308 305 632 -159 390 49 -231 127 -403 436 -422 238 -361 279 -81 -705 10 0
483 151 129 333 -17 348 -20 606 -59 76 706 217 392 -154 -729 -99 459 431 621 -326 -719 726 -705 -203 -105 -468 390 658 702 -362 315 -93 164 221 -653 -604 -124 421 -474 447 33 424 -230 420 109 608 -373 286 -438 -244 442 -197 24 692 278 -178 241 -575 511 -49 -751 -145 -368 50 289 676 542 473 360 -398 272 96 714 342 -667 128 63 685 -634 -60 220 148 -422 628 358 734 -177 -754 78 34 -214 762 236 299 -487 753 755 -127 -558 -339 -740 -219 -130 -764 540 -465 325 121 -737 149 345 -327 -252 13 693 261 -110 -571 170 -19 592 210 -176 247 443 46 649 187 -380 -496 354 -116 153 -297 -311 -627 -517 743 308 314 -631 -469 -323 182 -21 761 -589 -413 449 566 -448 -55 617 577 444 97 576 593 -307 -227 -587 -135 477 27 -665 -760 581 -439 570 -701 -583 -568 201 -642 750 409 414 -139 596 -11 748 276 238 -518 -619 -181 -646 -296 -68 -455 -281 370 -274 -179 440 504 -640 144 493 648 -10 -654 290 283 625 -429 -75 415 -441 58 -67 709 -336 309 552 -539 -672 673 -677 -37 -175 -600 615 -384 2 77 -516 678 -720 520 -567 355 407 104 -84 -16 15 506 275 -183 329 81 526 -218 684 633 723 -232 405 -185 -209 324 265 -167 28 200 352 -745 -266 71 -262 547 -389 -475 -306 523 530 -505 -162 394 -538 -207 -756 -452 -659 -198 686 -346 602 -603 -647 -662 -742 126 -171 -271 -143 -482 591 -708 578 66 411 -664 -158 268 300 -668 -549 614 -688 -391 498 5 -471 312 -234 759 -711 519 -338 321 -80 -85 -453 0
-513 -515 -165 -81 19 -728 265 -705 -84 657 -639 -730 298 594 755 -638 250 745 -330 721 106 -606 691 -79 -422 750 136 428 700 727 55 -464 325 -162 236 -577 -40 41 322 -487 764 550 -317 637 644 257 200 646 -142 -530 -57 276 620 92 89 143 225 -645 522 -482 266 -368 -674 -716 329 -73 144 -102 -224 -237 655 318 546 184 -23 473 -759 -697 29 682 -600 614 -366 507 -456 -333 -676 416 463 694 686 -362 109 536 602 723 -344 -580 186 483 384 -7 583 -477 539 -273 342 219 569 360 -13 -758 617 -223 -320 326 -653 427 -486 152 692 424 334 402 591 351 -352 280 599 -70 -238 -309 346 -315 557 496 -470 392 441 647 145 -457 164 -664 -405 74 -161 -472 -601 281 323 -246 -207 -722 97 574 171 461 526 643 140 -43 -561 752 -331 245 668 -327 -133 -378 -518 -306 -534 -514 217 -172 191 5 -180 -414 -413 289 107 249 262 -58 -48 411 -684 454 -188 -53 -415 120 -586 -533 68 91 113 -258 -216 96 762 711 100 -382 -425 -116 235 168 259 -475 -545 741 -146 183 -336 -648 713 -60 652 433 406 -709 67 -372 689 -294 49 124 -141 736 -134 419 -613 681 -621 175 524 612 761 474 173 690 -316 -672 -763 -742 683 -112 693 310 468 -658 -707 -282 -663 -380 -254 264 221 104 44 370 630 111 -3 -597 -99 661 732 459 -158 505 -243 -275 754 -410 -395 -452 439 443 398 119 -61 578 394 446 -391 35 -570 731 -564 270 -22 -201 548 -190 -64 498 -535 -568 -137 -715 -239 -575 -737 749 302 371 -103 -233 -86 -177 -559 0
506 -340 -128 -700 507 236 -202 595 -112 2 678 -521 -322 190 270 111 722 -468 54 76 711 -300 -522 84 329 124 677 -594 -343 -104 -142 -237 378 -90 204 -353 720 692 -613 -369 756 -671 -346 -358 -62 -689 409 201 -449 57 643 -632 167 443 391 -16 277 710 -732 -253 -172 160 36 -348 -715 -35 -351 -400 727 682 -364 -100 -173 12 -113 629 -287 -392 -574 -14 -139 -680 -145 289 583 294 -564 572 405 130 -73 -560 467 492 -95 370 616 235 716 -390 718 -285 326 -740 -426 -86 -366 420 -763 -456 -381 55 639 -693 -730 -156 465 -273 562 -696 -683 -734 662 94 189 -387 -298 82 -546 545 133 -288 -635 463 611 485 -675 473 -725 501 200 -474 -414 -102 729 413 697 -585 246 -695 -83 47 53 325 -651 525 -242 707 -109 458 -698 -360 -606 186 -644 -255 192 563 452 406 166 558 674 587 -747 227 -66 464 605 -736 -220 -127 -339 144 77 179 407 125 500 238 401 328 -442 388 386 -724 -684 136 -330 519 627 -576 -257 744 -292 -581 -176 604 -483 556 691 -619 -567 -743 502 690 -708 -206 -491 592 663 628 389 -313 131 342 599 -607 733 203 -673 -101 -419 -143 537 199 451 541 706 -499 -561 -264 164 91 -341 -11 193 -212 50 -549 304 311 -544 316 260 -259 356 243 357 -432 529 -223 411 6 80 -254 723 540 433 71 87 514 39 -416 -247 209 -487 -503 412 746 165 -470 13 -568 308 712 -555 374 -681 -106 -244 -527 3 -218 248 538 -303 657 478 -158 638 27 -355 -25 -267 582 428 526 -559 -68 494 -578 -284 -488 -755 0
-481 -490 581 -59 420 276 -457 -522 166 -606 -62 -557 618 -175 -293 -761 -559 -516 -252 -378 346 -371 720 -119 -75 64 243 517 171 -95 480 196 573 -763 -221 405 -16 -239 415 586 -507 599 -615 -190 -102 -364 -694 666 258 -411 -132 -134 -42 -678 81 312 28 318 645 265 653 629 751 -360 -126 204 706 216 550 -732 -418 -52 660 543 -6 -755 413 291 561 299 257 -422 -302 118 -115 748 611 -621 498 442 -63 -647 -307 -323 -340 676 687 671 -125 563 734 484 -130 66 548 -250 529 -87 141 19 -496 -45 114 703 -478 -179 607 432 -659 -407 -391 -240 177 -564 -520 -325 540 254 758 705 339 199 589 -366 757 -145 136 138 -123 541 -14 376 396 -729 -531 593 -324 -116 436 504 316 259 97 79 -94 -680 20 -388 -74 -281 -35 27 716 51 54 301 -746 298 279 -401 462 -121 -633 -165 47 -395 662 -210 -488 -53 37 510 60 -538 549 321 -668 372 -577 -700 -80 -759 -382 476 -111 -417 495 112 246 708 -691 -736 -152 233 29 219 368 -663 162 467 5 -453 -294 -479 -373 207 651 569 664 157 374 -135 588 43 -311 185 235 18 -497 -590 -684 227 -547 23 -280 147 -342 352 526 562 -554 -30 -608 282 -567 -493 -277 -333 -470 -314 -218 127 682 -3 -58 -176 -612 -570 128 -466 244 406 -622 193 649 673 715 -173 -392 -752 15 381 713 287 -266 -13 274 -50 -108 451 296 454 -468 68 -632 319 -315 -113 -256 -297 -475 565 617 -710 -241 -85 -361 448 -230 300 459 -747 -317 -187 57 -482 -458 160 -229 -269 -224 -692 -719 228 -122 0
-16 289 -285 -139 514 185 -490 430 -620 -405 -628 -290 -48 359 -299 -517 -590 -478 -137 131 2 375 -731 -30 -645 -403 -610 -329 -386 -190 -398 582 -619 -475 341 -104 -722 586 -303 307 -711 -563 -1 641 -671 269 -721 500 -87 720 -272 -287 440 -763 491 107 -651 668 101 214 419 -560 730 -713 -81 245 -681 142 326 -203 -271 -540 -174 -351 -404 -327 656 -143 -86 -640 321 -438 -115 726 -553 313 -539 -578 -452 -255 603 -575 -574 330 -207 629 482 -304 -5 136 252 40 748 -70 -615 421 -608 527 -416 -331 472 153 536 602 689 -388 488 83 -708 609 99 534 678 -60 495 -391 -368 -572 283 685 -424 -281 571 -712 531 -718 89 22 345 -441 -378 487 -677 -719 -194 -395 -758 654 743 -363 249 -480 161 -52 -140 -122 762 -714 367 155 -385 97 723 -182 745 -238 -556 206 462 699 443 634 380 -310 144 468 -106 66 239 -294 220 755 357 -702 744 251 515 433 -29 469 -499 -503 148 -486 298 -211 74 501 125 164 -759 507 -88 -176 120 392 -3 -78 242 741 406 -108 149 -191 318 172 373 -650 -496 21 -519 243 573 -565 47 734 156 -170 -154 376 110 -732 76 31 -163 -247 448 383 -197 -129 364 354 -580 -195 -41 -135 -117 695 -426 -216 -282 510 -167 -464 377 518 350 248 -323 581 451 -34 -118 -33 -447 566 -384 -489 315 -680 756 -338 -374 429 548 -660 -102 -505 218 394 -652 -693 -312 621 630 552 547 446 186 545 -240 -372 169 355 183 -370 -226 551 -493 -150 -396 -39 -700 -647 -297 275 49 -686 -64 704 617 -146 138 -180 -221 0
-202 13 -650 623 -474 -93 -604 -494 681 476 534 -336 -716 -575 -726 11 139 -668 17 -734 550 591 741 386 413 745 -488 -384 -706 -253 313 -369 -598 -658 118 -283 377 229 194 290 141 295 674 -53 -457 122 599 -383 -519 -437 -285 274 -434 -190 -37 -201 754 -108 380 378 42 170 432 24 497 -98 -166 675 416 214 52 -617 -146 724 396 -732 721 -307 446 -520 262 -187 140 -264 131 -126 -656 -203 366 -404 -435 470 651 -152 4 348 -392 573 242 189 -663 652 665 -48 -544 233 466 -390 -554 -698 365 9 570 -508 -616 667 -713 -725 -188 -332 -600 541 -137 757 -266 592 -186 632 -619 426 -727 15 -410 489 642 -200 546 -502 -690 -150 356 630 733 341 524 467 545 -391 566 417 61 -461 -34 -371 226 -149 367 401 -359 -54 495 132 -195 -609 760 -701 -736 -372 722 215 -25 162 629 -702 340 -176 -615 310 -58 64 678 73 -735 -738 -718 -620 357 -688 281 -80 339 51 56 316 362 -23 238 -654 328 -576 39 -360 -225 627 -646 -659 273 711 36 -586 -325 755 671 327 -318 72 -135 581 -296 -239 248 459 707 -304 59 20 -523 153 60 -626 -451 117 351 443 136 321 106 -588 687 -375 -670 -657 236 -45 96 402 319 -493 -309 349 441 -686 -559 -221 147 -512 209 -567 -305 -405 227 610 -260 761 704 -120 181 -161 -119 -500 514 -511 631 639 -196 606 -530 50 172 47 198 473 427 -171 -216 533 298 263 89 740 -414 168 -737 -492 660 -212 -282 756 65 -590 180 440 -287 84 -490 712 731 -517 531 -539 138 -14 571 -634 -185 0
426 675 641 237 281 753 -572 467 636 -365 -719 -180 465 -117 728 -282 -205 -661 522 -45 -204 759 -302 -23 -166 -468 -86 139 -466 -659 -245 -106 -626 168 -148 -56 -386 -650 64 -507 722 -115 345 -670 576 -737 -696 242 -585 685 -177 -524 727 47 80 77 323 108 -564 -404 -445 -721 293 -559 -234 327 -331 415 561 -679 -330 -403 143 -575 -574 -38 11 526 -3 -175 -442 437 412 -329 605 438 -19 745 -454 -393 -383 253 34 -283 -43 -448 -502 619 266 61 517 -272 190 364 -249 -215 677 -658 297 -17 378 -194 -729 -137 491 -429 263 498 301 595 -702 -667 -363 709 -142 316 394 -684 757 754 598 269 176 -122 -553 391 604 324 317 147 -392 -644 443 -714 241 -608 337 -400 -506 420 -645 -304 92 -533 -246 290 -425 -138 18 -120 513 488 530 -375 192 545 -519 -428 -333 -255 -623 452 -717 -50 -101 -340 206 -550 694 -294 385 -750 716 596 -651 581 116 -406 152 377 187 -432 -346 -611 -730 751 110 -188 -184 542 547 -602 320 610 257 -231 -72 -74 -132 -521 -309 405 103 -436 447 -216 114 736 -4 457 -384 141 764 136 54 439 -592 -264 -450 -95 379 -586 179 -594 493 -336 419 -431 -126 109 335 -710 -527 -528 590 -504 -368 268 232 -577 -580 -747 -409 67 -233 -42 -70 -418 -322 -36 199 252 633 254 514 -81 -163 -33 615 207 -489 441 693 689 313 -554 485 629 -273 277 -370 664 214 248 549 -638 153 -509 -676 -494 318 -490 300 479 -291 -211 310 682 459 -669 -274 -183 -197 -305 399 -540 -292 -620 9 -66 -511 360 671 -131 -328 0
91 -515 638 -507 -64 -573 613 388 359 60 383 -703 81 -640 -121 202 -489 207 620 -514 -270 284 -647 682 -422 -226 633 386 357 -444 502 -630 566 -606 581 -381 223 531 70 38 506 -27 429 -250 3 -405 -24 -725 -645 -556 616 7 660 -356 178 97 148 709 335 349 -237 -235 411 330 -299 -636 -144 -15 -261 80 -498 -624 396 -355 -353 -555 -729 103 66 419 -464 664 271 -206 741 550 67 758 686 726 -149 348 61 -128 410 -184 689 -670 -501 -218 -679 -274 72 119 -239 -53 -622 -142 582 744 753 -167 376 251 524 -77 438 -641 -40 199 -110 358 735 -721 469 701 644 272 257 361 583 -511 -482 -700 428 -435 372 181 367 -618 308 -719 587 -704 763 -346 -252 416 11 596 -471 454 35 -737 -36 49 -394 -222 -20 -96 -107 -385 -135 572 669 -747 -460 -467 22 486 -162 -267 198 -82 4 157 -430 545 -418 -576 188 332 -220 41 187 -371 323 -462 -494 -406 55 -366 597 -224 -529 530 718 554 -68 71 408 108 -685 -368 -527 -297 315 227 123 320 -509 -100 -166 -273 -415 260 -600 -695 -327 611 -510 75 -134 -136 -276 433 212 484 -733 -244 155 -665 -163 652 470 -314 -342 69 160 127 -615 505 98 259 -158 191 -487 -169 -678 564 -90 334 50 -152 -407 651 322 590 -130 -287 609 -513 -285 -577 -466 -461 -39 -671 1 -19 205 59 -710 -698 298 -325 -424 -656 -712 179 364 -742 448 -221 518 -672 -414 -238 -658 -456 360 370 -31 538 -728 614 -765 -146 604 -553 -256 -694 -115 -392 -632 745 -537 -655 -254 -391 -619 32 -16 749 -421 0
439 -755 -188 -402 -732 540 747 -674 270 -181 87 -262 390 294 -359 -271 -580 243 -287 -479 -616 309 -312 -647 382 -573 -442 -183 -553 -7 158 396 111 585 491 -266 -170 -351 -264 -342 -308 127 407 -724 383 482 -562 -144 467 -50 480 283 -610 417 -718 301 -200 45 -39 570 -148 307 623 -366 69 416 -460 433 659 356 131 177 622 155 -247 -577 -288 -374 -624 -488 419 -20 -191 428 320 384 -36 -203 -705 424 489 357 -249 153 484 -494 443 -761 319 663 -202 -654 495 695 741 -125 178 -682 444 535 -61 -673 -640 643 -578 -115 -552 -510 587 -642 -717 -751 252 413 -394 557 441 132 -574 635 -636 -219 -560 157 268 350 1 -454 -186 710 296 517 -683 709 -184 167 -529 -78 289 -590 745 -471 502 206 -104 369 380 -334 504 -646 -233 711 199 655 329 -586 514 305 255 377 40 497 143 -759 258 551 323 -737 -237 -58 -361 670 -707 392 32 -209 -466 -697 -476 698 625 174 469 -410 -431 -752 -333 63 408 -602 -135 -347 -518 -516 742 172 44 648 189 496 429 -292 -62 -6 297 -449 426 29 -221 -653 139 -368 -681 571 -187 -605 124 226 423 -658 -81 -699 83 -145 -425 -500 275 558 -136 -609 -475 660 349 179 -344 300 162 -726 -245 691 -600 -119 -758 4 241 -564 -100 753 463 -373 -107 -651 -599 -23 598 665 -54 446 -525 -549 733 735 721 89 633 -218 533 378 -716 -401 -687 596 746 -508 -521 -38 756 437 -597 138 485 -57 -171 -94 70 -457 427 526 398 -725 -130 615 472 -149 -448 -370 731 -629 -256 -76 637 -385 -75 34 101 0
3 105 573 458 -555 282 55 92 319 589 662 -477 -216 156 701 -251 -748 -79 -153 419 -66 110 462 -481 329 744 354 193 -313 -323 83 -735 694 -365 -627 757 475 650 -37 651 737 -68 -175 499 500 172 196 327 -620 -584 729 408 -567 -760 201 -681 84 -438 716 -414 -133 -176 178 -503 454 -362 -96 144 -724 337 713 -433 764 -250 -390 -496 257 695 603 127 -305 75 571 -171 738 179 595 -602 -644 487 -347 -351 522 -396 718 -523 195 -46 270 -161 -612 47 -746 -655 -373 -273 452 -182 126 310 -479 690 152 -237 -1 -301 366 155 167 -386 -287 -535 436 330 720 -22 73 210 427 -325 565 -94 -506 -290 -672 -721 289 -611 -446 502 95 -706 -160 -48 -725 395 -322 312 -369 -646 -214 -685 76 -443 97 -383 62 -371 552 108 121 389 -529 450 -600 507 -604 740 -33 541 -745 728 -99 320 -647 132 742 -207 563 -248 190 -568 245 26 -205 -558 331 -271 -80 -765 8 358 449 -157 -762 -582 -89 -447 457 356 431 585 -295 -102 -476 -255 -632 432 409 675 645 -545 -59 708 -504 -521 515 550 -213 -566 385 -400 199 -112 -149 -9 411 636 -299 406 -429 212 712 -54 14 -598 -304 138 -401 -577 140 -114 32 -74 -215 405 641 -258 -486 -50 -379 482 -460 -498 -243 492 223 538 -180 -253 303 -278 -134 -391 -554 -219 -388 353 5 -131 185 715 -343 338 -608 519 702 -491 130 260 -148 318 377 177 398 -28 -283 700 483 434 -485 -749 514 -625 -244 -246 726 -279 -564 756 345 -98 -100 691 -82 -617 -424 605 588 -537 -668 -509 -624 576 -639 0
724 614 365 283 -160 -174 -509 -73 -223 -707 -406 -710 482 452 599 -720 664 760 76 -499 -138 -323 -13 332 188 470 333 436 -50 220 -606 -578 9 56 247 377 -552 -562 545 -567 714 -130 -756 372 28 -627 -371 597 -541 -736 456 649 -252 747 -132 -478 -165 -493 762 -427 698 628 205 679 54 637 199 458 -89 47 -728 -307 -343 -580 -325 -729 652 148 -201 335 716 -548 -169 -327 61 -155 -126 -644 -554 694 -569 -272 -462 -342 -356 127 -235 -571 -280 -424 686 -74 671 -115 185 278 -659 -605 378 -722 -585 90 40 381 732 230 306 408 588 -426 254 497 229 -466 -5 697 486 177 -72 -362 477 453 265 -434 435 -259 -112 451 -211 -288 -717 95 274 564 -657 71 141 -312 666 -735 -171 -182 120 -394 -20 133 -10 -349 -32 -276 83 -393 151 144 -600 -405 491 658 480 -15 221 314 336 -674 631 -633 -33 -609 632 -98 739 292 -420 360 469 561 -596 59 608 219 535 -464 -237 57 -320 -746 -523 504 -460 -295 -530 -602 691 -612 329 550 -78 712 557 -107 -476 -197 236 437 212 -119 134 -344 -273 -506 -156 -380 -246 196 139 471 -761 446 -31 -701 -518 -67 613 297 -642 24 690 77 172 269 387 -374 -494 46 241 542 -193 416 -113 -684 -743 88 601 261 390 -226 624 -351 -308 -16 -255 -412 86 -345 -510 -118 -725 42 -36 -363 -737 135 -215 423 353 -400 444 594 -715 -2 593 6 117 537 -234 687 -677 -91 407 443 -529 51 -35 -670 636 507 124 -502 -190 -525 279 -4 -25 -511 -163 -324 -421 639 -413 -18 291 397 -473 487 -680 0
196 -389 558 263 -477 625 87 186 370 -589 377 342 105 564 67 -596 -754 677 126 177 482 -641 681 -355 718 31 -182 400 302 448 405 139 461 682 60 -723 -678 315 116 -333 -532 -407 127 -514 248 736 -54 463 -227 103 597 -629 -583 -415 -733 -360 570 552 607 -185 744 -410 -90 -762 751 620 -162 137 -707 -484 -197 20 489 187 359 210 -53 261 117 -55 605 -80 319 -661 -575 -91 579 756 648 -687 -467 636 -590 -48 -314 165 -626 713 -317 241 382 -156 714 -312 375 421 49 -727 401 -260 46 64 -168 509 -217 684 -27 203 100 50 -42 330 -10 299 52 -190 348 192 396 500 280 199 -475 -551 -18 -35 -572 438 184 -436 38 -202 34 -191 689 -40 -588 -143 -571 683 647 -39 464 -118 222 -444 286 602 -529 -239 -243 460 -325 57 -593 -225 -140 435 425 455 -616 -104 -695 -760 -465 -138 -567 548 -539 508 409 2 37 86 -343 195 362 204 -493 -376 495 113 -613 392 -298 439 381 671 107 -474 -408 176 -282 213 697 485 -553 -725 247 357 -609 -179 194 262 715 483 79 632 710 -68 -586 310 580 114 124 478 738 726 -585 -492 -692 -630 58 63 -259 223 -7 -451 -504 599 71 -303 153 737 -413 669 -406 101 304 329 659 459 709 -424 -554 366 -151 228 98 269 267 688 -690 -170 346 242 297 -699 -472 -323 212 -497 604 43 -97 83 519 -276 373 -637 -110 220 -327 320 490 -740 70 -545 442 -340 337 270 -141 -257 -281 456 167 498 576 -397 268 -367 -496 -623 612 -716 471 679 -453 -414 512 13 -295 -311 254 0
-136 -240 116 591 -414 164 -55 -752 -696 305 426 -579 425 141 -5 -465 549 142 622 500 369 -399 610 682 11 154 -716 67 237 -495 739 674 -327 334 44 -172 -676 698 625 -617 10 -209 530 685 -192 -113 187 -365 -221 746 392 -662 54 -566 -632 468 -25 382 134 -234 575 461 533 520 -326 -403 624 38 148 155 -518 -525 578 -40 619 -339 342 292 -434 648 -757 -169 -98 298 -421 -175 383 -409 584 318 -542 712 -508 644 -754 -4 436 718 -321 74 77 398 -285 35 -273 -432 -388 303 -91 -507 370 287 115 -593 -36 -671 -105 -348 -52 -377 545 -159 607 572 182 290 742 473 -740 733 486 -384 -692 267 -331 -717 -341 -723 -645 599 -236 353 753 -615 448 289 481 -703 551 -304 -27 583 756 688 -581 223 491 711 552 -145 200 256 -211 -527 -531 -702 458 -22 -601 422 -755 537 -620 -405 631 140 241 419 -61 198 153 -463 -580 -565 686 146 475 -727 137 144 261 -109 -332 -121 42 201 -634 -442 -428 -243 -524 -139 -126 -99 111 -281 -431 -550 -284 569 429 219 -454 -661 -29 -381 -337 -646 232 -49 -653 108 210 726 -585 83 -239 -748 218 476 88 -469 -516 -75 -736 72 -346 477 -34 230 97 -394 435 -203 513 657 -69 330 750 -389 160 707 497 713 -178 765 665 628 554 64 81 488 -635 -71 -56 73 -222 -660 -612 -561 375 535 162 670 -176 -673 605 -193 741 101 -418 679 594 -571 315 125 -344 -350 -758 -78 690 180 -264 233 503 -316 23 457 751 -759 -487 -626 -12 371 -684 59 296 651 7 -33 247 -53 -764 -470 586 0
-328 256 502 -38 667 5 -346 450 -59 -440 -566 137 63 -416 -604 -36 -82 537 74 -79 -388 -417 333 -48 228 -626 -15 -567 349 649 204 -213 -461 -98 -258 -691 96 476 -342 674 733 584 -247 298 411 -220 -643 -78 -707 -240 -644 605 -701 238 -265 140 -434 -655 -635 542 -209 556 534 235 -348 -510 -121 -601 314 -148 547 324 382 -532 376 233 543 -249 153 53 713 10 747 166 634 -744 670 182 -91 -115 -189 303 468 -464 399 -608 -28 294 -11 -4 426 -141 218 765 -338 -571 -286 -756 -362 -261 -7 168 12 454 -370 -291 488 77 -143 -56 321 312 -435 732 -672 201 347 -327 721 125 551 -469 61 -108 -652 109 267 127 487 339 268 -754 -453 -615 749 638 508 -87 -51 463 -302 110 -194 552 -22 355 -43 151 -386 -360 -351 -293 697 211 410 -19 -387 -367 -574 311 475 -481 389 -511 660 496 -474 -366 -88 693 393 25 764 570 379 -46 641 698 -431 -118 -47 -358 413 702 -579 335 -133 517 518 407 531 183 588 242 -402 -739 -71 648 -196 597 271 -575 -554 669 -129 -596 -582 493 -288 301 158 -130 175 -2 -113 572 -639 -85 217 624 671 197 460 55 -372 -725 -95 -506 696 -222 -198 -743 41 -442 -104 -716 374 195 237 -229 -231 761 307 -179 380 456 -549 525 -236 590 -210 -248 186 -557 -734 315 -681 -94 -145 -208 472 216 -188 -519 695 97 135 72 23 735 84 445 -414 397 -741 68 101 383 -514 622 666 -709 259 -251 -70 180 -562 155 561 -105 -569 -21 -722 755 -1 282 322 -728 -223 711 -174 -361 611 424 686 0
668 -670 434 -393 -374 -621 -725 168 327 -322 510 -97 467 -749 -549 443 -721 697 -354 -577 -124 -702 -17 -381 47 581 -651 -637 535 647 511 -229 477 -578 520 -249 317 -99 -350 -539 -739 -81 -258 -537 -363 398 -84 197 -276 457 -132 334 233 -104 560 136 427 -570 -210 -576 -337 382 -433 -591 279 508 -478 -566 289 550 -364 732 100 -448 -54 18 -344 107 324 -85 -370 -526 507 390 365 414 -709 -718 -680 -154 503 -423 -456 -496 -323 623 -215 -559 -200 -495 246 346 -657 -620 -446 -497 -272 -29 133 483 -440 -502 -113 460 -59 326 -24 616 462 -569 432 -264 -662 -319 101 -730 379 572 -544 144 -307 -230 -606 -395 652 6 42 164 764 -328 -529 -424 640 72 342 -564 -735 -248 -167 135 -16 -590 -734 -687 225 -420 -292 -291 -273 282 116 243 -499 -64 -263 -527 -458 315 -618 1 105 -610 -360 -655 169 -238 130 -417 -638 22 269 -266 313 698 716 -187 -609 -252 -83 -247 -95 -465 70 528 707 -387 -357 -332 236 700 -452 -219 -470 153 389 551 412 -756 400 -435 -406 32 -667 -184 26 314 442 -450 -538 -388 155 -9 555 -468 685 -384 -653 -280 88 -723 172 190 188 542 715 713 449 690 -750 -353 277 -490 -228 703 -540 -92 78 166 587 -103 453 593 628 -445 554 -504 -201 714 -694 693 -134 45 755 -480 -359 -753 34 180 -115 -547 615 -77 149 -222 -671 -758 -198 -516 439 649 660 -63 293 -170 65 216 533 -241 -686 -447 589 738 -355 127 711 765 208 696 -717 -303 727 -579 -255 525 206 -290 -302 -748 -288 140 431 -695 186 318 597 0
-333 432 102 -176 461 660 306 -213 -585 384 194 -733 -482 632 -224 263 664 63 -549 -735 -605 597 245 -387 -137 -568 -620 420 601 -55 -161 144 329 -186 35 242 -453 -579 -54 -566 -648 -302 253 -322 77 -755 -647 -270 741 -261 -423 278 291 -726 -668 -308 -19 -703 -502 -514 171 90 653 226 105 -108 3 -498 -466 -227 -458 72 2 362 -626 198 244 709 -304 305 18 136 -173 -472 -567 501 650 -150 -42 79 -716 574 483 172 474 -691 -169 -557 34 179 -659 279 -162 -92 369 75 -439 60 -553 -23 -350 -522 756 211 -633 -62 289 -429 536 508 -207 69 -516 -296 -577 215 87 454 33 -640 -702 -618 -612 -503 127 -496 311 -81 356 -530 -31 527 671 47 -614 -184 677 128 -345 120 -714 -651 339 26 657 237 -392 488 -584 -271 -190 424 129 743 -192 -155 -64 -380 479 465 559 535 110 -310 615 158 -185 621 -318 114 -441 234 -395 678 348 -608 -485 591 -106 11 459 -427 45 269 49 -471 -763 -22 112 -673 634 -750 563 -20 -414 -319 178 692 -13 731 -373 -393 520 -292 -257 280 -378 317 448 540 469 571 -610 590 -761 223 -477 157 -336 214 -517 168 -547 564 -80 661 -543 -217 243 377 48 481 -505 602 -276 -365 446 437 551 -539 -532 159 -548 254 -133 399 -745 -337 -293 346 644 57 764 166 473 104 -208 -83 622 440 95 -220 -499 -355 376 528 265 -316 -16 -749 -255 -231 -165 -717 455 -545 413 -636 -739 -515 687 -320 285 -1 -264 241 411 209 307 56 -681 -523 438 652 457 759 -201 -89 -604 431 358 -629 -708 -725 410 0
451 -472 602 -490 428 525 537 572 -493 -611 -188 -724 -592 -589 -394 -595 -33 -185 620 -293 -35 479 229 -743 105 738 -121 -528 -322 -367 -487 -655 580 -125 704 -597 204 -337 417 -378 -477 279 -529 -762 -612 -409 559 726 476 374 -168 -251 578 -654 533 -398 -51 -129 662 106 -370 -199 -217 626 494 85 -584 -47 -599 434 486 624 -73 -488 622 -426 -628 -242 303 58 -696 -179 -355 550 13 -633 437 -224 -583 -49 18 -76 202 -698 632 729 741 -272 716 -753 -635 301 731 360 -116 -728 -447 530 -581 758 -210 213 299 172 563 446 638 -122 -540 134 -160 415 -363 -651 678 -723 650 -693 -144 -600 -557 -174 -78 637 432 -444 157 -171 -201 140 653 -647 500 -422 147 666 -54 -757 -351 734 -216 -62 189 369 -295 -576 99 -314 -36 -718 413 -304 668 156 -722 558 -419 347 485 -613 -7 736 330 560 215 692 -3 2 -491 -296 136 714 288 739 -274 281 66 262 -443 -520 -83 -553 507 41 -50 -323 -104 -233 614 44 397 -695 -48 98 302 182 763 107 643 588 284 392 -178 -52 -267 756 -315 -21 126 -457 -642 719 -435 -169 -22 -124 765 244 -318 118 -113 214 -292 469 591 384 375 -257 536 -740 148 664 -701 -545 629 -746 -336 30 -290 -680 -114 -177 -438 509 -759 518 -151 -439 393 707 23 677 316 388 -598 478 420 498 -15 24 -287 353 585 159 436 37 712 440 365 97 -627 531 -240 -325 -335 -192 309 441 -32 721 175 383 535 495 -40 -380 604 -391 -513 306 -260 607 -506 -410 102 -277 -332 345 -703 -660 333 -55 482 496 1 0
329 -625 -157 13 675 647 -458 72 548 462 19 607 -59 -204 -3 373 145 -342 381 368 597 -579 -476 -107 554 -335 -516 -325 92 -300 -481 -31 465 765 161 -502 -321 492 -532 -383 -645 -764 -150 669 57 -225 -561 294 54 -726 -725 750 -319 -490 -2 -495 -410 -205 695 102 147 -159 754 414 -223 -29 -612 -683 -280 293 -375 -560 440 113 116 655 -304 -240 646 91 238 -235 231 -143 340 23 573 464 254 -610 -759 -708 -559 687 -491 110 103 144 -268 154 -721 -468 -378 -402 -302 531 -101 -263 -672 -326 183 659 581 724 549 -167 -341 745 -711 242 -722 -756 241 -744 474 574 668 11 -460 -564 291 292 -127 -392 -407 18 -336 391 699 376 486 219 331 -389 -189 -334 -706 -409 -379 -89 78 740 -719 471 -448 -644 -7 184 136 -701 -131 -105 -192 -734 -221 -295 -493 208 -539 -258 -602 632 -264 -743 -653 452 553 -79 -354 -718 630 483 487 -339 251 -209 -109 -366 228 755 -124 -652 -611 4 172 -207 374 -528 -178 -747 -447 215 -352 -234 -399 -68 104 276 253 -583 -522 582 -187 377 737 678 643 702 -176 -508 517 265 50 398 -467 -88 362 -637 -432 -67 21 -194 576 186 1 590 361 117 -515 202 -286 323 621 128 -111 401 86 -98 749 -81 -746 236 -301 171 562 -250 -442 -620 636 -667 609 345 312 -247 289 -677 33 657 -169 201 712 396 230 -188 -34 -135 -359 577 -141 -271 393 -475 132 -153 -26 -456 333 525 -162 173 666 360 485 -344 384 446 121 698 497 47 595 -589 -555 752 524 -248 175 -216 -130 28 -328 307 -15 -558 -142 0
-729 466 17 -591 62 394 723 -751 210 -570 -155 533 613 743 -428 605 -373 -308 -131 -256 426 376 649 282 333 -589 -278 223 -279 1 -154 -526 484 -54 685 25 302 -225 -226 636 -678 -69 -2 -46 700 -101 -641 65 677 75 271 435 621 -7 150 16 -722 -592 -393 586 80 510 68 157 -74 -697 -171 340 167 627 359 409 -26 -11 -260 410 -601 709 71 233 513 180 -78 -710 760 705 175 -717 -421 338 274 12 -211 -385 576 -21 -490 181 725 -491 289 452 -549 692 -306 -754 -444 -204 -521 726 -596 -164 96 294 351 -611 -179 227 640 -213 680 -267 619 395 563 -626 -427 -620 56 665 -445 671 136 635 312 712 32 -465 245 105 496 -547 364 -28 336 477 261 682 324 275 176 718 540 -97 91 -296 140 -165 -462 580 224 -383 598 -622 161 -418 166 388 221 756 506 -290 724 -203 8 -319 -372 -355 658 133 113 -53 -59 -90 -110 -285 -305 564 -757 451 -608 424 556 346 -676 -218 -43 742 -690 478 198 352 -193 516 -652 -148 201 604 -423 765 304 -467 545 456 345 58 348 -153 -103 -29 -36 -486 -595 -413 -322 116 -206 343 -344 399 -475 262 241 52 -577 191 489 -216 -99 501 88 -667 487 -293 112 -252 239 727 369 328 430 432 386 -15 -693 -460 -19 468 459 -368 -567 -512 -127 400 686 735 -561 520 192 505 713 -438 -583 353 -380 41 -212 -696 125 291 753 495 237 523 -145 -759 -108 141 645 49 602 527 6 -614 419 242 38 -139 532 10 -276 229 231 571 -360 537 -552 655 648 -738 579 473 3 701 656 0
-329 608 -594 565 622 -530 650 -674 398 -225 368 -40 -476 -545 -424 -443 185 36 -51 538 -167 319 100 113 107 401 -312 601 611 -715 -140 -19 -271 -758 -448 519 -200 656 131 678 -529 -666 297 472 -575 -748 169 610 -314 693 278 23 -744 192 491 -298 457 -150 375 640 523 546 -186 -764 -34 144 370 -79 -160 -222 -387 33 415 -422 305 -590 -638 -761 -400 -725 270 -692 617 517 555 260 118 -649 534 -133 -596 202 -244 -213 119 -296 52 309 503 -62 -129 637 488 556 22 311 625 501 138 -624 126 101 217 -366 599 -28 -559 467 -156 68 267 -483 587 -757 88 634 -504 661 -630 -347 111 450 -528 465 323 -619 568 390 444 708 557 574 356 -718 -246 460 -161 -136 333 607 -171 684 -317 112 633 231 197 -733 461 562 -178 411 -551 -181 -195 293 -547 -235 -695 -515 -318 -127 -409 71 -665 711 216 330 -363 239 -463 563 436 -146 -365 -72 18 -35 -58 -511 417 -513 -632 82 -376 499 86 272 335 486 -399 445 -727 -196 432 342 -208 -201 753 -362 595 204 606 5 -408 -233 -125 -762 94 -588 -106 468 479 439 372 548 -306 -128 277 -378 -702 388 145 -600 571 14 -273 -326 -651 -459 130 61 709 188 -583 -46 240 697 -576 -756 -300 357 -492 -627 456 -636 191 -121 735 397 -494 65 452 -747 482 -704 -153 275 -224 374 -238 681 509 182 -281 738 165 250 487 413 -60 635 -89 69 -199 -667 696 76 569 -265 -262 -475 458 344 740 -402 176 384 710 -736 -74 -102 440 172 581 454 -30 -434 414 -554 690 -245 -584 699 453 0
407 -153 -705 -79 113 689 -362 471 335 -105 619 347 -497 -375 136 -274 417 -493 20 -603 525 208 339 738 556 276 -640 -649 729 -221 264 -37 708 -614 -328 409 155 -228 -496 251 -612 -345 204 -330 589 -405 415 -25 -724 -332 -455 214 -513 -357 -704 478 249 504 -366 -453 -130 -548 292 602 441 -551 -349 -220 436 202 156 179 52 -360 739 -97 558 389 280 -373 183 697 -167 454 509 -569 390 30 538 244 323 554 -76 636 312 250 709 -234 111 -571 45 -397 588 731 -730 354 -384 662 256 -87 -344 -118 -665 205 388 -633 -491 -563 511 -246 16 144 -10 492 -434 212 -168 59 -60 -7 129 338 -477 57 -181 -696 -751 -99 133 -282 683 -346 303 271 391 -206 38 240 -667 -580 334 553 88 -84 736 628 -23 -646 229 395 -650 393 236 465 -446 -668 -459 437 463 -435 329 599 41 356 -520 590 31 196 302 -300 -476 61 710 174 121 291 189 -331 -743 495 -199 293 -307 243 209 -574 699 579 656 -568 -691 717 501 -340 657 359 -261 -411 625 -44 -46 -141 -482 -537 78 -694 43 425 135 -311 681 379 -550 2 -748 673 -353 -733 -720 -266 536 253 -585 -358 555 -96 -262 510 -485 606 -652 -109 -762 -744 -486 -722 -304 -692 -512 367 233 -597 410 -700 447 -83 24 674 -69 746 231 -630 294 448 281 490 637 -351 620 -711 -618 -160 -257 279 638 -611 737 -318 -428 617 -58 -19 616 -186 -567 -680 -48 -401 310 1 629 -376 -464 -239 -333 584 -462 224 -275 432 -164 178 -6 -685 -54 -177 -623 -381 -122 -247 505 -544 -201 -404 480 0
526 -82 -288 33 225 -173 -442 738 231 -668 451 286 -705 -183 107 -407 -1 294 642 -537 -527 134 270 178 -499 -432 612 -262 482 394 172 44 328 -223 -580 453 -146 -500 -235 273 -199 110 -57 -361 439 -383 680 746 593 -167 -290 492 -78 -49 -248 -257 35 -452 -334 155 53 193 278 -748 735 18 114 152 190 609 741 -399 717 -376 -582 307 -740 -531 371 129 -544 -584 364 122 -346 23 -252 -752 -204 -329 -477 111 -595 -603 390 552 561 -518 85 213 731 227 -191 143 87 -715 -629 429 -568 14 -368 685 473 -698 564 -343 -753 -209 224 318 -507 654 536 -747 -744 233 217 -210 293 619 441 339 701 133 -589 -711 503 365 -400 742 360 324 -591 553 -243 -613 36 -725 -372 -260 -637 264 115 62 -221 13 579 517 413 275 -255 -759 -408 -762 -214 222 -27 -251 -505 -56 -650 338 -332 -581 -66 -481 -691 556 758 280 65 -301 79 -171 241 -165 -117 -757 590 -119 -142 -726 708 710 -633 19 -131 -38 -645 543 -615 638 86 732 573 -522 60 158 -712 -285 -276 -491 124 618 -528 -538 -721 444 302 563 -749 -327 -244 -652 -147 739 151 52 274 316 -567 727 423 -699 -515 22 576 -359 457 300 -355 -263 91 514 45 -651 -39 230 -424 -277 -733 314 -308 -238 -470 -350 106 319 -8 -562 95 -175 -192 -34 641 266 -663 -367 -72 406 42 462 -509 -388 -3 -219 109 15 623 135 489 370 289 271 -659 184 551 -693 667 -750 -31 498 -466 -377 635 734 -202 577 421 -570 -89 -206 43 358 185 -418 -363 600 -430 674 -474 -310 545 -387 722 0
-485 -663 588 501 -126 -593 -325 -30 427 -223 -345 -239 322 -316 333 -132 -545 526 -648 -567 296 -295 388 -529 -761 -243 -5 -63 729 -102 199 -97 -723 263 -412 -499 94 281 138 -303 -319 -283 730 537 250 536 -135 -338 -686 382 140 431 -408 -178 -584 -620 358 527 -311 64 -204 610 603 310 742 349 -131 368 702 -289 -510 579 55 617 304 -347 251 27 210 660 -270 229 377 418 -211 673 31 306 79 -86 62 599 -54 -601 -118 346 -488 360 147 629 676 605 -331 717 -350 -105 574 -504 651 57 -309 -398 241 -75 -661 443 -286 321 -577 157 197 -108 34 128 294 -257 -581 -201 -29 -275 -525 191 52 -626 -91 -168 189 421 152 699 512 -340 -471 -733 260 -417 -405 -416 136 -650 -549 181 23 -221 -586 492 125 60 -130 440 409 -727 364 -455 154 33 -623 757 -481 188 -725 -77 -486 -403 -47 12 -436 -425 66 344 -720 361 483 -513 -264 587 -609 497 -192 656 -111 341 -560 641 175 13 -540 169 278 -657 -21 -113 273 299 -115 -82 205 -451 430 589 -659 220 -314 -336 127 759 -595 -35 -495 51 253 -163 271 613 84 50 -44 214 218 402 -9 472 522 467 177 395 -765 114 352 -453 -429 -16 489 -628 -238 -538 -43 -675 195 -141 190 -70 24 627 107 -394 -591 216 392 351 -515 -227 -83 476 -98 -665 602 -179 357 -514 698 -634 -553 -716 -353 683 -751 -337 674 -180 -697 -744 -365 235 248 -261 -245 -642 493 -232 -287 -500 -176 133 -519 -741 -265 -419 411 669 -426 -363 117 598 134 262 -76 -695 -561 292 452 -315 387 -596 -530 0
468 132 684 -519 -312 733 370 322 579 -628 -212 474 634 -511 -386 -600 -752 509 -413 -338 735 -505 78 246 59 622 -159 581 395 -279 -557 -569 142 526 666 -653 106 -546 -523 286 357 -274 223 277 -522 432 -573 -611 -621 273 -392 -520 -23 -553 213 -554 108 706 -508 559 698 674 -619 488 342 -411 302 187 239 135 -235 -205 -707 -192 -500 -18 -269 275 -84 26 79 -503 437 236 668 9 445 30 -682 64 341 -321 -440 -385 -167 38 -81 284 -675 -283 -638 588 -218 -226 28 747 438 -204 191 730 -266 725 217 598 251 -65 -717 751 543 326 -107 328 -556 202 475 -140 401 -711 -648 -69 -726 58 -408 -216 36 626 -669 665 -535 -618 -98 -125 -379 -572 -299 497 -285 450 -510 -121 -248 262 -514 667 365 607 697 716 45 -339 -267 -154 679 97 -375 -74 -210 56 412 646 -527 -41 454 -40 -664 208 331 397 86 369 594 531 225 -676 -691 542 595 -258 -478 701 -334 613 -673 718 -254 343 -642 -352 -119 70 518 -177 -124 -317 608 -271 493 95 476 663 -7 -296 96 48 310 430 354 -311 -276 353 -234 -485 -197 249 455 -329 -20 567 291 -699 758 629 -67 -117 -316 -489 693 -655 734 -441 383 206 185 -749 368 -290 12 -658 -76 -173 -31 241 278 -406 -577 -308 599 645 -198 -525 -424 -176 -261 -122 -620 44 416 423 -380 713 -83 -272 242 -115 114 -484 -164 736 -361 -506 112 -188 480 71 -409 149 252 -639 602 -549 -502 -222 636 -694 -398 63 39 459 -243 -73 -183 372 87 601 606 654 544 -473 160 -294 -647 -574 -228 708 -144 0
682 602 250 102 -681 605 -552 -579 410 -467 -94 193 -434 80 -698 -305 265 16 -379 -722 628 -9 220 -36 702 -302 656 82 288 -646 -133 -354 404 -87 29 -101 -35 -246 -435 79 -20 10 360 -573 -213 707 -703 209 -369 -392 -263 -284 137 586 159 -308 -444 -357 757 106 -2 -1 23 316 724 367 733 192 54 -453 370 -136 -17 -731 390 630 19 292 -683 456 -332 271 -26 575 -183 -483 515 -368 378 601 426 -393 -362 -599 568 -534 -205 -422 625 686 290 673 647 74 -366 420 -537 11 603 528 -663 -715 -421 -341 637 -725 -487 353 176 -635 325 517 -738 486 -640 248 -595 126 -665 -570 -219 689 -239 384 277 50 -99 221 187 -22 164 141 -633 659 387 -407 -208 130 -377 -561 -425 -711 -232 -18 -680 -197 412 455 147 -398 -253 -39 -298 -115 104 278 753 -91 705 -300 -118 538 216 238 -728 -494 -299 505 471 -582 -165 427 -574 668 639 89 -343 152 -546 -666 530 522 -600 -510 -433 -604 -736 -741 661 670 -240 -571 690 526 252 -142 -134 218 -411 -249 -638 -606 336 -161 511 743 361 -273 -459 -117 350 685 -401 -303 114 -472 -311 -168 -163 151 -491 -719 714 418 612 -547 123 565 -614 -45 344 280 -710 287 -42 749 66 -658 -756 -125 -539 664 -228 403 469 241 156 -158 -413 -447 53 -755 -572 -648 -217 -363 64 44 129 93 75 195 394 564 -330 -458 331 266 28 281 124 443 113 -201 -122 -415 -560 -583 191 -624 -533 -651 372 345 116 -739 -389 -223 226 24 -629 170 555 -83 -294 -38 -693 -307 -27 607 -557 -301 -498 -383 748 0
596 -148 -556 -755 -420 192 445 -611 -316 -175 640 -251 -460 422 -545 -92 -302 648 -324 138 19 -651 617 -315 718 -706 381 -702 100 676 -241 -345 29 495 205 75 -23 57 632 -703 360 358 74 -291 -660 42 747 476 716 -373 -444 124 450 89 667 128 413 -679 -562 -478 160 -438 -214 524 -578 580 -699 -688 266 317 493 554 -511 -502 -753 351 208 -364 226 -686 -37 598 -553 -414 409 -215 -743 477 44 715 -179 -694 -472 606 176 83 -626 -73 655 306 190 152 -397 -501 408 669 -529 -285 253 163 -206 62 742 -327 672 573 16 50 710 -143 197 159 -537 -7 -106 466 693 -636 -572 267 -534 609 -229 -593 538 -56 533 661 -269 525 618 -21 392 396 331 -433 -446 -173 47 -135 -395 -474 5 -155 708 -505 32 -88 -112 -399 -746 129 3 690 -169 541 313 -717 357 492 280 -216 634 -59 510 -560 -301 -559 102 442 -53 -394 -341 -366 542 646 78 -665 -426 77 -386 293 -604 -724 -627 -454 -463 579 274 -212 481 -120 624 -605 -735 540 -91 -687 -666 404 731 -368 637 -33 -168 8 -393 -14 -390 114 328 521 -658 563 711 -639 142 468 -754 -518 680 -24 -391 494 620 -43 -621 218 -252 -165 -292 133 -232 -504 532 -264 417 284 -187 439 544 -567 434 -607 -462 730 98 -633 185 -652 115 228 -419 348 198 757 437 -465 416 260 322 -649 -305 194 -448 -513 523 -195 -153 -319 429 263 459 -594 631 761 403 -9 -698 344 -177 -487 35 377 90 -503 -565 -729 574 507 499 643 -300 -346 -591 -758 -592 94 -244 213 -31 664 -582 -402 388 0
586 452 482 135 -427 153 -157 -725 590 -556 549 253 223 461 220 93 374 177 597 213 -594 456 373 284 399 201 -532 562 -184 -527 271 163 -152 -162 -168 -116 -691 436 717 60 -317 -493 -195 -616 255 3 -379 -567 61 296 -645 239 53 473 674 475 96 -558 -212 -281 -514 323 -505 656 99 -699 727 92 345 550 392 -325 -627 -528 -306 673 -346 443 -209 667 700 226 -139 -398 -210 662 671 -321 689 -134 -347 -396 537 652 -105 400 602 -639 302 -395 617 364 -441 583 -413 -143 127 660 380 -211 -121 78 -310 607 -424 80 484 100 609 -714 508 526 -678 -112 297 -17 -534 657 251 32 236 -357 -538 -187 202 474 294 433 -702 63 277 410 -438 632 -67 -559 -570 690 -755 -432 457 -314 351 -612 363 -722 -109 -604 -588 247 -18 -446 352 -227 -366 454 -524 -414 -606 -492 750 -561 -233 349 511 442 -291 -426 -260 -285 -237 -205 401 282 634 371 -165 64 -217 728 596 -381 173 -453 629 159 719 -190 -299 -643 1 -25 -682 -199 -258 -419 613 693 -31 -156 304 -167 -232 666 -548 -387 -252 420 -194 -272 66 -108 243 705 222 -132 732 -404 -624 431 434 610 574 623 268 -20 333 287 24 -741 262 -654 -30 4 -214 340 -513 -497 -585 571 535 -249 -552 -46 761 -178 -206 -544 -449 758 -765 -565 521 460 -435 6 -362 -7 444 343 250 174 -144 -622 -26 14 -391 -45 -491 631 704 47 -320 -295 146 140 -478 13 -383 54 269 318 504 82 27 -183 172 -84 293 154 564 -204 -176 -679 -569 -332 -582 386 503 -661 341 98 179 605 509 0
-168 292 554 233 -247 394 487 740 -410 -325 437 374 -373 282 705 -255 122 195 201 -703 334 565 -206 266 -375 331 695 -103 430 448 -667 -418 383 24 682 -495 26 -656 -536 -66 -433 -421 79 -474 346 -204 -544 -265 235 -264 -159 115 -711 -434 436 -129 244 -187 765 -216 420 -104 -548 218 -661 -492 464 -680 724 713 -340 602 -289 354 -515 44 -415 391 -239 -304 645 -720 616 402 655 -267 -725 488 566 -706 -281 744 654 321 305 13 -550 382 221 -730 -258 -710 148 212 -417 -491 -511 -477 -636 -200 -568 -483 -192 41 -643 197 350 337 651 -592 154 -364 398 -533 476 170 89 633 -462 134 291 -49 273 125 -222 610 -524 365 23 -241 -71 -429 -112 105 756 -226 -39 443 574 -411 -74 135 727 10 -428 388 180 311 513 -272 -694 231 360 57 662 246 397 -743 -729 -324 -445 245 -619 755 726 -455 -560 664 -392 -287 460 -343 666 -124 240 295 626 -432 -156 -84 -559 380 228 -100 12 157 469 -259 506 -764 217 -43 -269 -521 -519 132 -405 -75 -668 -210 702 493 146 -347 -648 207 -642 113 174 93 649 -223 -189 -581 -327 632 -341 95 40 -553 376 300 427 242 -21 571 4 -167 -294 -396 322 97 65 452 618 545 741 67 -546 336 -408 121 -423 -85 637 -673 525 498 98 47 751 -137 431 127 361 92 185 36 -78 -531 736 -153 70 -663 147 -379 584 -248 51 270 -634 -444 296 -640 68 613 -188 158 -699 -451 -196 547 -3 280 -309 -176 142 5 -627 -33 -181 508 86 179 -335 31 -468 -166 -701 -484 -404 735 479 577 624 0
-715 597 -62 -193 194 -761 -709 -405 -459 32 -67 -222 -686 -229 -659 -625 185 -548 -10 22 -5 132 -439 492 177 -760 322 142 162 737 -264 -639 87 -591 536 693 594 487 -679 756 139 -620 -20 736 706 -724 -17 47 -533 -340 -215 -490 -178 673 759 511 -385 300 -7 327 -86 -362 654 97 -704 486 -170 -557 -410 27 -423 153 -218 577 580 -403 42 -319 260 16 -504 -259 -196 749 699 -304 198 33 -454 374 694 389 -155 -748 237 -579 133 714 -653 -589 -444 -711 -394 332 110 565 -149 -72 192 -183 -509 -370 -265 -727 -152 -227 241 751 -515 526 662 -570 -341 105 -287 -396 -531 618 762 6 -276 717 -716 283 -357 337 636 -70 -217 383 -470 369 -376 -80 -248 123 510 -656 431 -422 540 61 88 121 -574 -411 -506 -68 235 675 433 -118 -141 -535 -55 -732 -448 -584 -518 255 292 -195 700 302 63 167 199 -742 -375 81 -390 467 691 -19 125 -309 507 484 -331 -458 404 -1 558 516 108 104 -289 179 -361 672 -219 -158 379 -640 669 -15 -275 59 478 604 446 -689 -438 -764 733 660 -744 234 -310 -633 703 720 545 82 -690 -41 -538 -165 210 -587 522 495 -154 359 368 -670 -50 -151 213 -278 -242 24 547 -221 -182 -645 -350 -491 614 -578 399 -143 130 418 76 573 -647 -305 277 -626 109 83 14 40 127 468 -263 189 730 450 351 -595 -316 187 607 563 641 520 -91 -365 -214 273 -103 600 -682 560 -393 212 681 728 -552 -741 -475 555 -95 92 -26 697 -537 173 -246 -51 413 34 -655 240 -60 -208 -11 539 180 136 129 663 523 0
-588 676 510 304 -686 -365 -545 -464 -681 -515 178 -220 -295 -339 258 281 349 -201 -230 675 -529 -75 197 387 84 -445 -405 522 -396 398 277 -244 283 446 256 -659 570 223 187 -500 194 135 506 -172 -409 -498 7 -738 739 -316 -213 425 124 429 351 118 474 -74 763 216 95 -754 79 -630 243 -452 -109 730 569 -484 164 -181 -419 -463 56 -552 108 -414 -423 687 -93 41 695 -450 63 -420 752 45 422 15 -311 58 -219 -571 -495 336 -524 -683 512 -622 280 83 528 -471 586 368 -735 576 -88 701 142 192 402 -101 14 -544 310 131 -166 483 742 226 -294 -539 67 488 -22 744 611 700 -517 437 -491 -460 -621 208 -369 191 -156 275 324 389 -454 -669 -713 689 361 481 37 97 34 29 -252 706 478 -182 330 388 -189 504 204 726 222 -606 672 -112 -601 331 -18 -303 607 71 -210 -211 499 -270 -50 35 727 54 100 154 -122 -451 -551 240 60 -225 344 574 540 480 -271 412 -646 -231 -534 -2 -614 44 51 717 125 -90 -91 -87 -728 -426 -548 -85 -415 -666 241 110 -259 427 -401 -747 -290 -120 360 13 -546 234 47 759 -430 -600 -313 -386 77 469 269 -538 527 549 -285 40 140 180 -20 712 -533 -287 -260 443 684 43 -381 719 457 61 428 595 -343 111 566 590 657 -605 581 -650 -394 70 359 -660 436 750 -65 198 12 -158 -128 -346 648 358 -704 -143 232 492 33 -82 253 -329 -161 163 -598 710 636 -372 -530 620 -697 -237 296 305 564 -264 -537 -239 -42 -691 -321 384 421 433 526 -64 -52 -355 542 374 -610 -98 245 0
81 677 -271 -699 -183 708 319 192 -615 594 311 371 -297 451 621 -565 40 -550 532 578 -385 518 711 139 -79 -666 -49 487 660 700 -515 -261 587 -484 -146 -411 400 330 -661 21 -115 733 27 -730 753 -188 -119 77 466 -170 -220 -113 165 83 108 -167 638 56 644 186 -32 -692 -383 -336 701 -533 -298 291 89 428 534 -502 126 -216 539 -662 -596 -570 -679 631 -713 675 30 175 344 -670 162 269 -629 -691 447 -335 -349 64 348 255 -218 398 574 359 -68 -707 136 -647 -332 61 -78 -646 199 726 176 -394 512 -526 133 739 735 -316 705 312 109 360 256 571 -346 -236 302 -485 648 -258 -338 -102 194 -421 -480 239 478 763 -274 -144 -513 -227 328 -722 -327 -624 414 390 -389 87 -519 -720 -683 -197 154 -664 -432 -652 7 -147 -321 -717 -76 -649 -5 567 -262 66 28 -376 -505 -761 357 130 665 680 -370 544 226 -290 272 503 -456 148 -554 -433 304 -267 464 -295 -279 -575 740 263 92 179 350 -198 -231 468 499 -590 406 -657 -339 651 -296 -379 -320 160 610 431 149 -479 -55 676 -686 -2 511 -233 63 -494 -210 234 247 -382 -17 495 564 -249 -143 195 -674 -384 284 612 97 -747 -11 -765 625 404 459 163 -43 251 -436 6 -252 -681 -748 -276 337 -270 696 -368 577 458 -392 -622 -246 439 659 366 453 -530 200 593 -315 378 -510 472 -758 -586 -553 -601 217 -104 -208 520 387 62 -441 -655 -416 -658 465 -716 -486 -209 413 292 425 419 -727 266 -1 -581 294 549 189 -391 448 207 -435 684 -529 224 -322 125 -254 598 -141 -82 742 0
18 -229 -544 -350 -120 520 608 -155 -21 -652 354 -693 -315 -698 78 -330 418 323 -201 -703 343 -408 -44 157 15 -255 -763 -575 -24 -365 -596 690 -225 -751 521 239 459 -727 149 -282 -188 662 450 376 -69 -119 -236 -542 205 -754 401 543 572 555 163 371 303 598 48 -165 429 481 124 -406 -235 631 465 170 182 428 -599 573 -103 -93 -179 -602 -20 -499 742 268 668 -254 -248 50 -73 -500 -564 -571 -383 643 576 -442 234 547 -147 -97 66 -424 -595 -222 -169 -617 -398 624 -512 -332 407 238 -107 -94 730 646 43 353 579 -289 -469 264 114 -110 422 -77 -532 -355 7 296 -553 -658 -19 13 129 223 -38 -34 -570 -158 501 381 601 -741 -548 -563 65 623 311 278 -444 -237 -679 -605 -484 240 -279 91 192 345 116 356 495 441 -721 207 377 -506 187 562 335 189 -89 712 -340 -387 546 -620 505 122 -504 -464 -733 -517 411 474 153 695 416 379 636 -745 378 -510 -351 697 -52 -178 98 417 -634 -384 475 291 -487 145 -172 508 -219 613 204 262 552 705 -413 -273 -336 628 -635 211 -687 339 -533 -115 -31 397 372 -203 -568 -626 -68 -625 686 -603 212 -251 -331 -256 403 -656 174 -132 -241 473 277 -249 99 226 -228 -152 -472 715 267 638 493 -321 490 329 134 -523 -366 -342 270 649 123 -316 454 -137 -286 302 294 420 -708 12 42 232 5 -425 582 486 673 644 -642 -49 -184 414 515 46 -581 -220 460 -130 334 -433 -247 -630 -113 -395 -67 447 17 -45 -550 -16 -443 322 -295 529 -349 -139 664 -367 728 -485 359 328 491 -439 274 0
-86 219 260 544 613 375 -58 576 -394 -353 -416 225 -220 180 120 70 151 732 431 8 543 734 -6 124 -526 211 258 146 -207 -308 -575 -676 361 610 -697 -60 651 -432 36 386 471 -18 -170 -554 -81 750 -77 552 -98 155 -512 -248 -195 -407 690 122 -199 362 262 346 675 -570 -71 447 -212 -429 -667 145 246 -31 244 -497 166 711 2 276 378 94 461 -193 -182 -285 754 -234 -424 -741 -755 50 -619 83 608 -137 686 -567 -456 148 -149 516 -101 -726 -265 289 466 -478 451 -88 -721 557 631 328 748 -404 156 96 -160 -745 -128 26 679 -650 385 412 716 100 -439 -188 -319 703 -192 63 364 293 264 -13 -21 -727 -705 457 655 -609 622 -515 -168 25 -233 -469 -621 500 -93 -710 -194 -326 53 -546 -740 388 -649 -736 17 -700 498 738 548 190 505 666 -238 228 -581 -612 -409 177 562 -605 356 688 290 107 -658 -728 -564 20 -440 376 -593 -227 -436 582 245 458 -78 -669 -281 702 -632 302 -397 443 -696 -442 568 341 269 633 -585 -204 620 307 167 -242 -524 539 -719 51 -335 583 66 556 647 -130 597 -67 -95 -551 -370 349 -420 462 -183 369 -422 586 465 49 -112 -329 -257 -692 -298 -706 -670 371 -449 -525 -693 453 -464 518 -636 -480 -240 -72 -758 671 249 560 623 520 759 503 507 351 438 765 646 -684 138 -191 -504 656 -312 121 -533 -141 -157 -339 -673 -198 -33 511 377 291 189 367 344 513 -102 162 -508 241 354 -232 266 -331 332 -537 135 311 -210 -89 104 -363 12 496 -445 -531 495 -28 -299 82 493 314 678 -599 -463 0
91 587 637 426 59 -105 219 -258 363 654 -172 324 -494 469 -288 -720 251 -548 -459 -53 -279 -531 326 460 480 54 66 -234 622 106 268 -1 549 29 256 -730 206 -87 679 453 406 -330 744 -164 -12 -98 -561 -136 470 -329 -487 576 667 425 147 344 511 -137 238 -185 -725 -386 650 -231 471 -476 466 -205 -108 26 -397 -647 606 -144 396 224 -635 -96 350 160 50 214 -315 -296 421 -300 -265 -195 556 -360 -334 349 -715 -201 -327 -674 -232 273 -688 -372 -278 -240 -660 -94 -395 -706 545 -204 457 -590 627 -377 376 -390 534 -707 -506 -236 655 -569 -8 420 -605 -723 -174 225 -601 618 559 343 332 252 504 532 -546 -733 311 348 646 -488 -732 -230 -162 401 -77 -562 505 -61 520 693 -491 658 -177 -585 -194 -394 -594 -291 430 -245 -522 632 301 -461 -11 -541 -552 -75 -468 117 -398 364 313 -515 644 -387 704 -4 -630 302 -89 -353 663 267 -539 588 -158 -73 247 489 538 507 -48 -748 233 497 -25 433 207 521 361 429 553 691 512 93 -659 -115 448 17 -244 610 285 -428 677 -112 246 678 -333 378 23 -432 297 529 292 310 -741 -139 436 -111 -508 -317 519 150 -577 -275 524 159 -382 694 -684 753 -127 -517 271 -537 -308 -359 -375 21 -750 -39 399 -70 -255 -629 -699 155 475 -228 354 180 145 759 163 -544 -528 636 -462 493 -40 722 -547 -456 -355 404 318 -761 452 -579 -76 -192 -294 611 565 60 -736 -135 -745 -558 -719 102 -443 274 -490 -672 -347 668 -282 -166 51 -100 365 474 424 -575 10 -189 481 243 20 -525 -402 -146 34 0
-296 550 119 297 -441 581 577 310 -247 540 -66 462 -745 562 -286 183 291 138 316 708 62 191 -505 -279 -750 593 -93 -185 408 -72 -369 348 -744 648 177 59 80 -605 -629 -71 6 110 -360 -50 -412 -758 38 282 -584 661 320 -763 662 -753 -437 107 715 625 -438 -215 -257 10 -761 600 435 -356 313 285 -502 726 -357 272 -558 609 -439 -134 567 55 33 -639 102 350 -564 658 -623 -5 -314 -391 -85 342 667 -556 121 -471 -746 231 -603 324 560 368 445 -255 555 211 -106 405 -242 736 583 655 731 541 632 -688 -120 -338 -448 -627 -236 503 175 -300 -289 -186 566 707 189 131 -416 -330 403 -460 458 634 349 649 -705 -612 -601 -70 718 258 607 40 -733 -563 -443 -700 518 -103 -173 -748 344 -96 -13 -31 155 -519 274 -249 717 -12 204 530 678 -396 -214 -592 -606 -472 82 499 69 431 620 -690 -404 -436 95 685 280 549 364 36 -29 195 -126 159 41 -143 -150 -179 -227 -122 376 568 201 -202 -44 -752 47 266 -317 557 -61 269 646 642 251 676 160 -46 510 366 144 630 -361 674 -222 509 -469 -703 740 457 -742 383 486 75 497 -261 597 -335 -104 -42 -203 -265 -245 475 622 -184 -374 79 614 9 -113 -485 -450 433 91 287 -315 -137 246 -665 -392 -171 -478 219 166 -273 -680 304 527 22 596 611 426 250 686 476 267 762 -23 432 -182 -659 710 418 -756 -90 546 -572 424 -56 738 323 447 -101 -162 -176 -351 -588 111 198 167 125 -4 511 760 -654 1 512 -595 163 698 -401 -180 -169 389 -149 -226 194 493 68 547 0
-588 469 -3 -417 431 -468 -565 730 329 339 46 -619 308 -25 227 -679 -358 257 -744 -124 -383 -380 198 -473 539 212 -489 -577 -196 -615 326 175 -651 -549 -705 -239 -170 13 -606 -209 -57 540 -389 -166 711 456 12 -665 756 192 23 -70 -269 -719 493 146 194 -412 457 58 -370 442 426 -247 301 -490 193 265 644 -147 150 -362 199 -504 -111 165 313 -600 -108 -745 478 -191 722 -297 236 233 526 -672 -403 -481 248 288 -69 -204 -659 141 -607 167 -695 -18 596 -516 -173 -364 -205 -240 567 472 662 590 100 -641 -47 97 -486 -487 -144 -519 -715 -112 -453 -105 714 -354 213 -95 127 207 439 -256 -595 -424 277 -50 -520 42 -159 54 -649 290 732 445 -601 180 -690 -683 653 -694 -416 399 710 -562 24 -474 -220 238 626 -578 410 -396 -741 67 -332 -62 -347 -535 391 713 -5 341 368 338 579 149 -350 -118 -693 8 491 -115 -572 65 -323 16 -748 262 -531 708 -324 -197 -528 -137 -31 214 43 -534 30 -340 584 75 583 44 437 726 674 66 -736 603 -116 485 -26 -754 -374 -174 107 -244 548 746 564 135 -632 -637 -264 19 544 -113 -458 594 511 750 -361 479 -502 -320 53 -628 -266 507 -696 -574 -218 394 -285 -614 720 140 -126 -243 591 316 -250 -110 -384 -134 580 -92 -77 723 22 278 101 757 216 -38 556 550 283 -143 -45 -90 68 613 -611 532 -382 -223 569 145 -373 664 342 -610 634 35 319 673 -669 729 -639 225 -80 -677 356 -725 -475 -21 103 59 685 -120 49 547 -303 755 246 139 -162 406 275 357 697 -557 -48 -500 -514 0
-82 -265 125 -146 29 244 -546 600 461 -447 -323 -111 711 153 -292 -415 218 677 -351 -194 -245 -23 -459 -585 478 -687 -130 -277 -55 -562 -725 537 452 -378 87 -233 -532 10 -229 -686 310 -349 -311 -701 -380 -409 742 361 -432 -526 552 271 750 633 60 -723 618 570 169 -593 294 -423 346 67 -171 327 662 681 -418 690 247 -466 683 -731 15 -278 -547 -261 -420 483 -1 324 -759 -760 -132 43 -481 -639 90 620 -238 765 563 307 -234 -209 408 -427 -255 -312 707 -251 720 328 525 -497 623 668 147 -384 -449 474 -127 -13 -397 -181 197 -710 -83 138 51 455 485 134 -661 676 580 -154 666 -382 283 49 -129 663 -236 383 -416 -607 -706 -733 -253 -457 -735 286 -473 -716 542 -285 622 599 -135 191 122 35 -248 -8 591 -625 536 329 -544 -734 14 212 630 28 -168 9 650 -454 -338 -763 -273 120 502 565 118 -572 235 -63 -339 -231 672 -254 484 703 -300 30 24 -39 -206 148 -295 -210 -290 -217 -88 31 -494 424 119 462 -343 -717 -170 -376 548 -287 721 335 303 417 705 103 -560 -75 45 -442 610 -507 -458 606 -322 -437 727 -594 -222 37 371 305 -369 -595 -301 400 345 374 -694 84 -359 -514 696 249 608 -112 102 -516 -250 -336 482 199 554 556 -354 670 -467 350 604 -515 550 -493 228 651 758 488 -628 581 471 -263 669 392 267 189 -702 -561 -394 163 -440 -57 116 297 -390 -431 -712 319 -575 -422 428 357 -732 -370 -743 79 419 647 353 -411 -761 -569 480 619 627 -187 59 697 -109 177 754 115 693 296 665 512 -506 738 373 0
70 515 659 646 -469 -266 -162 -45 189 408 -129 96 173 -679 238 230 -556 694 -652 -225 -255 -484 522 364 611 -536 -356 609 576 620 702 464 -349 -428 -461 -672 -294 113 118 -203 -217 208 378 591 -175 -595 316 -628 -574 -163 -713 -677 681 448 353 -381 -372 177 -443 -334 742 758 332 582 137 -40 -107 471 130 -387 530 568 435 580 661 -71 -526 -67 -607 -699 -680 477 -741 198 232 -10 -190 732 -207 539 -566 640 -215 -674 -26 -733 231 -743 -562 78 275 224 406 209 -333 -329 389 -478 -188 -577 -135 548 -296 -235 472 -167 -738 144 354 -112 -424 -21 -616 565 459 57 -355 -250 -297 -419 -299 -279 -527 8 533 62 -236 750 500 -119 -134 -470 124 -712 483 -525 -287 -538 -754 -594 291 210 60 -695 572 4 -439 -521 -497 -590 551 -132 247 22 -285 50 -194 -308 104 -375 -106 507 -437 -719 -543 56 -240 30 43 601 -449 604 569 -169 145 302 2 -485 -612 317 643 -442 101 -307 -415 244 90 717 226 103 -602 -331 434 258 -425 49 286 314 298 34 542 489 -68 141 337 -494 -242 -88 346 -676 131 -667 610 259 400 -339 -735 92 -183 -243 -385 724 -277 -229 -260 -709 -656 564 671 519 642 -105 570 -755 664 -233 321 700 -76 -239 639 -156 -458 759 541 445 -756 -632 269 246 584 -535 -219 746 453 116 -304 -625 430 -431 -486 -605 -505 -524 -598 -692 293 -482 -714 -125 420 -5 202 227 -627 427 440 128 -7 212 300 -63 -305 -322 -429 352 546 315 513 32 -560 75 666 159 588 59 108 545 -552 600 534 -95 -93 -24 -622 0
569 -636 253 -130 -160 -600 359 -611 -360 751 25 -202 747 -763 -306 -290 -347 -190 -367 -102 -187 418 309 451 382 626 666 -157 -178 -258 -184 688 -337 464 634 298 -377 -465 -644 -532 -212 -617 648 661 330 577 -720 303 -721 155 450 -696 -390 -89 63 -232 -631 300 -393 -344 248 463 233 129 -601 -621 154 646 -437 34 356 340 713 250 268 302 100 -16 -609 -196 -316 628 -281 -386 -110 -223 -151 -198 376 -23 558 -213 -452 394 -103 593 -527 692 -304 -108 10 -320 540 -259 -681 47 -652 -630 -83 310 -764 -65 -473 225 559 -387 529 733 -622 543 -260 246 584 -8 -677 441 669 697 149 292 488 -147 -735 137 -514 -136 -555 536 -143 -332 417 274 191 746 -201 530 314 206 -453 -257 321 91 -578 -333 139 -431 170 -263 221 -624 123 398 29 -596 -470 754 203 -516 24 -497 41 -547 -500 -241 -317 262 335 -526 580 -506 -427 14 -610 53 -286 410 -338 132 210 -727 19 -244 -133 -21 435 -730 5 -667 -15 432 725 -70 -655 759 623 -664 18 169 -518 760 457 -468 -175 758 267 -691 266 616 408 -545 116 -322 -556 -72 695 -675 481 -743 -676 484 39 -535 -75 111 573 239 570 200 -438 714 548 -2 95 -254 -278 142 406 112 449 -403 -447 -585 595 642 537 92 204 -6 -391 115 -757 -22 357 -162 -230 369 643 -120 -565 740 729 625 106 458 235 141 494 755 -708 -416 -739 -519 -649 -670 -490 280 -371 424 -107 571 -117 -152 520 156 -469 753 549 -319 -186 -654 439 -67 440 -420 182 -354 -55 -217 -687 308 -409 -375 -413 659 459 0
-199 -573 280 185 361 329 723 553 -558 -115 623 -332 -33 -423 -168 -310 707 -421 -515 356 497 44 384 335 -179 276 -56 431 484 54 -674 457 250 525 316 -392 -425 389 554 376 697 418 403 -290 496 -224 -127 -288 -366 -26 618 -337 654 21 83 24 172 -463 -585 -635 526 -262 265 -604 -447 -733 -50 -299 468 -400 -728 762 -101 -735 128 653 426 593 -524 -71 190 -460 -486 -353 -311 -334 -97 522 683 569 238 -134 79 63 -500 393 -96 -89 -700 758 362 711 -10 506 85 -143 94 -125 274 -363 133 -461 -498 23 732 686 309 565 -272 -556 698 -196 -669 231 189 703 753 607 -145 -200 -443 227 -555 319 713 -591 640 75 483 -701 594 211 750 727 641 181 458 379 -114 657 387 658 43 -297 209 -488 321 18 -612 -633 152 -492 -731 -287 -710 164 -273 708 739 370 308 -141 -505 -130 -357 -170 678 749 -636 157 -646 162 630 -343 689 -495 -232 -557 -453 278 -464 414 -413 398 -35 107 80 687 -155 32 95 504 -281 -493 -649 -441 156 304 -381 -195 -322 755 746 -621 681 -323 438 -99 -597 -764 279 -55 580 364 712 -512 627 -518 42 -369 -437 191 151 -696 122 -218 534 355 -440 638 -419 317 528 -331 340 88 339 -454 535 -578 611 -45 -344 -582 -386 203 -415 -13 -61 382 154 517 -450 59 -110 -65 204 193 -351 -247 60 563 467 614 615 -719 736 714 -327 367 442 117 11 93 365 -388 680 -672 -670 -41 251 -420 -469 245 545 -249 705 -22 439 116 72 -694 -173 74 -688 -347 244 -757 352 138 -584 167 112 -252 541 0
-487 -110 -701 3 -124 321 671 -383 15 209 -704 -217 -541 -182 -223 306 -191 -16 329 397 -338 -39 -659 -5 109 207 690 286 -462 468 528 747 403 264 -490 552 712 -554 -711 -553 -692 -320 750 -452 -337 -450 -485 260 699 461 -733 7 358 176 509 -427 577 -199 90 -735 -698 300 100 136 -435 170 253 -114 -430 -584 616 140 -734 -693 408 -425 549 389 -399 448 49 -266 533 -602 -669 117 653 614 203 595 -502 -111 43 526 -304 608 164 -424 294 -415 579 -174 658 456 98 -127 498 -378 -569 -187 506 -353 44 273 189 325 112 -651 -496 -763 158 52 -420 -574 -99 354 79 -256 -406 -29 -328 -729 467 -593 104 305 -25 -322 760 -419 -610 437 -762 290 -9 413 -233 -335 314 177 720 210 -481 401 478 681 367 -196 120 -604 537 -147 200 -749 674 557 73 -220 -297 -615 369 475 65 -521 74 -400 179 714 31 359 -183 218 234 -195 -598 -293 -543 342 -587 459 -548 186 546 202 -647 -178 -431 -243 -64 -323 263 -635 -126 -92 489 -655 -433 -154 238 -382 -500 643 689 -93 -343 133 -166 81 555 249 274 -742 118 -23 -283 171 410 -754 411 394 250 -680 -125 710 173 416 -232 -53 -54 -371 445 216 551 -48 682 27 -57 58 192 -97 402 282 -129 319 473 -339 365 -688 50 -331 298 346 185 578 675 326 85 -639 68 -2 -89 460 327 -572 566 -251 -181 -352 -412 10 494 753 -237 454 -620 -685 -605 550 696 -649 705 -683 -515 -436 231 -316 447 150 60 -536 -743 573 471 -285 379 -744 465 503 201 623 531 -657 -718 219 -144 0
-153 -247 743 134 -582 716 379 -706 -44 -11 -308 -537 477 75 -109 -6 -735 295 -53 -154 -495 -597 558 -106 -318 157 200 556 361 -613 336 -32 -382 -413 114 -237 -452 -227 327 559 -560 -169 201 -175 -421 -551 -646 90 248 -567 -464 -278 -70 -674 -105 -690 -236 -50 347 -408 659 14 742 91 110 442 -57 598 -267 -733 31 486 243 141 373 -722 396 -339 -529 493 -206 138 399 159 -177 425 -636 -269 -179 -86 -479 -218 -195 409 491 405 -628 622 542 -602 -616 460 -266 -702 -679 -387 675 -323 439 -434 -20 692 10 729 252 401 589 693 445 -299 407 143 257 -756 -148 -219 605 272 -25 568 -593 353 149 400 -757 -332 292 -87 510 548 573 -129 -119 -133 -663 -443 -95 -187 -300 -24 19 -319 755 -734 543 337 65 -317 113 369 708 -17 642 450 475 -469 -427 342 666 -549 -370 624 -311 -185 -550 -8 -705 -140 -309 3 -417 115 -736 194 30 -329 130 -48 634 -391 383 433 -724 -496 -66 437 -698 163 523 462 -494 -307 -720 -224 497 209 728 603 -12 -676 184 357 455 -453 -714 -484 -297 40 -625 -259 223 385 -122 746 178 13 530 71 -727 -712 54 748 513 730 654 276 701 -349 -38 -463 -120 -585 -356 432 500 62 457 -198 -366 583 -97 470 -520 -623 -202 94 673 514 -420 -713 -116 -451 522 -67 -301 -761 518 255 135 -740 -23 699 -614 -362 657 74 509 210 -615 528 -166 536 -358 665 638 -39 -139 -473 581 429 375 -670 -233 189 532 -4 -677 220 726 217 562 -331 -515 -531 749 78 538 -226 -72 760 -208 -596 -261 -81 745 0
-507 404 358 -680 -48 -255 -671 -233 318 123 262 99 -133 -549 205 181 -100 -364 -688 -627 -334 309 337 381 4 396 -483 374 -434 -24 562 600 467 149 215 618 749 164 179 -702 473 -89 -424 93 -199 624 -699 -118 62 -7 -466 665 -247 544 620 -739 -114 640 -751 500 305 43 285 -502 -242 -586 391 354 -349 -315 563 712 351 11 -532 758 -9 -190 -276 595 -525 204 -178 -515 400 360 -280 -30 513 23 614 375 644 254 296 72 59 -42 734 529 633 311 -412 -88 705 207 386 137 656 -273 103 -216 55 -747 323 -329 635 510 295 -470 561 -112 -193 388 -718 615 -744 356 -677 -449 729 79 340 286 441 170 234 703 690 438 -669 -413 -742 570 22 -341 211 -97 -107 -128 -753 -138 -35 540 167 -322 303 625 -109 730 248 165 -131 197 575 -499 -606 -378 293 425 -720 -617 159 494 -141 227 292 632 -723 -29 368 754 376 102 -246 -390 -361 428 -148 -416 -605 643 -591 -616 221 269 56 33 -250 484 -764 -308 -357 -492 -508 -288 212 -154 155 -639 343 534 -142 -588 143 301 -78 693 608 -545 183 -556 389 222 -194 379 145 -442 82 706 -468 -590 -558 -20 439 -239 713 -573 -119 393 710 -41 -648 -501 272 -645 597 -399 326 560 312 -14 -419 228 498 -520 737 -659 -226 745 455 -237 -163 331 -268 271 -481 750 -339 353 201 -670 687 -698 -203 -426 -63 -210 -719 -168 -37 -682 26 543 -568 -17 -740 77 571 -243 -736 -672 541 -180 94 -651 -495 -188 -701 -531 -382 -25 370 -517 267 537 641 422 231 512 3 -657 658 -461 31 0
-81 484 216 540 -201 355 199 -57 80 -311 -50 485 474 509 176 -60 -758 -630 -638 -334 -534 -330 -583 -306 -369 -247 226 -280 703 -224 296 -466 338 -757 -76 -25 -3 -601 240 111 190 335 -222 521 135 20 -53 23 -704 365 196 664 -318 -570 -223 -706 -492 115 -610 361 -500 36 140 241 212 -694 -672 -467 -138 -688 373 -141 -297 -382 -82 -391 -345 -626 -728 218 -654 476 -541 -747 605 -21 725 428 582 627 35 227 527 -624 86 718 -528 749 409 579 -242 -126 -666 -645 562 -167 -277 -573 -84 144 557 404 286 634 -34 689 367 401 599 -243 -407 204 -678 -411 629 -639 302 -710 473 19 561 -229 -105 -380 312 -171 -432 130 -298 235 -208 700 753 -62 326 457 331 -30 172 729 -526 -278 -292 191 -631 695 -354 383 7 -657 424 133 186 -613 -405 451 284 352 419 685 -679 147 -676 -339 -159 245 268 18 -692 -505 640 -325 -313 -29 -187 231 -74 -336 179 -202 396 -761 633 740 -145 83 426 410 -377 511 525 429 185 -260 108 -88 421 291 -209 129 -567 -592 -675 -681 -308 350 -256 -708 109 -157 -744 -269 455 -516 220 423 479 -398 -554 -267 -188 -279 683 463 632 576 456 437 -724 -393 -515 -33 117 659 322 680 -384 -283 42 717 -532 77 -671 -101 537 -166 41 -661 14 507 153 762 -670 197 577 449 -316 589 -564 71 737 430 -92 -162 93 662 -295 -321 -205 13 -95 660 125 -637 158 -598 765 215 -529 741 5 281 -458 571 73 300 -56 693 -136 -206 -406 349 52 -646 -378 333 110 37 -9 320 584 -471 203 696 -721 0
90 251 615 -146 361 751 34 339 -92 -456 -466 -355 537 235 -700 -666 -719 143 -407 313 515 -82 633 -318 405 -22 -468 -756 -658 140 -722 -91 -511 -323 332 63 -207 123 -677 -56 -227 -644 -735 619 -21 -379 -241 142 -219 -69 -424 664 73 429 -488 -399 -733 61 132 62 686 -467 131 -554 295 5 -411 119 -254 -273 -81 248 232 -758 304 531 -191 410 -199 -562 -338 364 453 -681 -729 493 422 744 660 -596 448 689 177 109 -748 -376 329 639 -386 -246 560 136 138 -217 -690 185 244 -262 -192 -297 -653 -514 469 -176 565 352 -597 59 659 98 -408 -667 88 696 -94 77 252 -641 -400 -699 -526 -49 -703 -738 404 370 668 162 -371 -358 159 475 490 -152 609 425 670 -326 258 -620 492 509 -2 375 489 -271 742 -144 53 604 594 -634 -575 -750 -80 629 -727 134 269 581 315 189 -351 -455 566 -230 710 -128 276 -170 19 -474 481 341 -368 678 412 -578 99 96 366 -528 -561 616 -749 730 -547 -190 -274 -237 -648 437 -50 -694 37 200 -651 75 679 -182 536 286 524 179 126 198 -618 698 498 446 -571 253 345 356 203 -500 -281 68 -503 -151 -270 -550 -584 572 647 -65 327 35 713 726 245 238 -595 307 643 402 -586 -707 85 -591 434 250 -160 -567 579 491 278 -627 548 300 -55 435 93 421 -229 717 529 -283 -362 -512 532 506 -374 -287 -530 674 -517 -576 100 -43 -221 228 299 671 -427 202 401 -350 461 120 439 -505 -715 113 -501 -543 692 -41 540 195 736 -656 -384 260 636 -211 354 457 646 -197 -172 -454 349 265 755 0
-272 -98 391 -481 163 544 -547 574 -392 105 349 -186 585 317 83 53 -748 -75 -575 -488 637 103 -489 -190 -59 640 169 -91 717 -434 247 -216 -319 432 -629 -581 -466 -666 198 -756 285 -99 -130 315 238 709 650 -213 -253 751 -760 728 147 -21 -43 -102 -614 635 -631 471 -697 669 119 293 -352 -331 29 -523 757 -676 -552 416 -422 -345 704 155 -687 553 519 -741 -745 -597 -394 -733 -192 670 424 -652 -446 85 557 63 668 13 278 578 510 371 -203 151 -569 -536 -493 374 -531 -326 461 -365 -245 -454 -120 418 -496 182 -191 320 -306 -366 6 -656 -296 -659 671 261 -763 -458 -724 -177 363 460 417 121 -131 211 714 762 1 -535 593 383 -439 -608 -290 623 -721 445 403 -236 -740 -401 358 -273 -566 -101 746 -638 387 723 95 194 411 200 -328 23 -137 50 221 758 -501 305 153 380 41 -595 -373 479 -264 150 -215 -87 -248 583 604 -647 -196 -228 -521 413 92 -287 -199 470 -433 45 -755 311 -379 -708 469 648 -93 -125 -178 25 -641 738 335 -2 727 701 -208 448 -765 -24 545 485 154 399 -750 -26 -722 607 -698 495 642 412 -183 -370 -138 -467 -73 -139 726 -744 72 548 386 -230 189 22 117 37 58 127 -568 492 48 428 -113 -576 -176 -234 128 108 -653 599 55 -35 408 588 -542 -533 -600 447 567 -657 -516 -630 -694 696 430 -47 -5 346 354 -730 -126 -185 162 -690 -207 324 -663 -497 56 -340 572 -250 368 -636 -649 -232 -643 167 291 90 -246 279 605 134 -692 -161 217 -283 -310 -274 -719 -409 725 -686 711 15 410 -168 -739 0
686 634 -532 -543 -476 -358 -105 -227 -146 78 -619 444 -373 702 113 544 614 -54 -673 214 19 2 -724 -255 268 246 529 -624 -32 -84 191 -18 386 156 -590 -192 -487 95 349 -359 -548 -186 -13 310 -28 -460 345 575 499 -436 -521 -367 -558 -512 -657 454 -323 464 -560 746 -249 198 -653 124 -741 -127 459 -288 -387 108 292 -674 661 637 -649 542 -172 -102 651 515 -528 -374 148 -147 413 509 -216 -93 -282 -60 -421 -585 -433 92 344 735 -527 471 -758 -700 -493 -395 555 -592 -615 86 -472 534 41 633 681 405 -667 411 170 447 -289 327 337 -654 -434 -737 -627 635 335 -698 -439 -193 322 -514 -656 11 -354 -706 -607 -232 -229 274 122 112 126 157 -77 663 606 577 376 682 -107 -220 25 -625 -599 -53 390 -537 -507 613 554 -256 154 -62 -632 200 -239 140 616 -228 474 712 -244 189 -169 -94 -742 672 547 -578 -535 -199 -120 -530 -564 -251 -312 494 142 -400 -143 -690 336 6 482 234 -519 580 174 263 -79 -366 -753 159 163 -469 -190 80 281 262 -55 -722 272 -111 243 -717 -540 -561 -384 -685 451 37 -699 347 325 679 -670 -731 196 135 630 -495 330 -510 -340 726 -180 -357 -513 -209 -5 1 89 287 393 -377 10 110 -137 -684 -26 201 -67 -266 691 -531 217 173 -363 -63 -115 -595 428 -382 222 -275 -668 -99 -704 584 -225 125 526 452 -650 710 -181 -658 714 -756 -329 -518 -736 240 -131 103 552 267 -675 -721 -221 -596 693 -522 -463 408 -574 -391 -556 477 -51 -207 -104 317 378 523 296 45 -61 -697 197 151 -91 -603 569 97 -116 0
-460 -230 -300 752 719 110 483 65 -563 312 535 748 -620 338 -81 436 522 -235 -210 -499 18 596 251 -583 598 -6 571 -73 755 604 353 190 -594 591 -492 392 642 -422 95 -635 439 14 697 357 -134 -458 441 -519 -624 534 149 216 -457 7 514 -471 376 -737 633 291 -680 584 511 705 -350 -74 355 150 -130 -363 87 -98 -462 -714 -165 -236 -507 452 -389 21 525 430 -303 -418 515 -589 618 -374 -261 -504 -685 -473 -241 -701 275 267 674 -348 -447 127 -30 -600 256 330 607 -162 -153 -50 -122 573 481 509 234 672 610 -205 622 -539 -704 -88 -233 631 -23 713 -438 666 636 -516 -351 -547 128 91 711 -530 35 239 54 -69 540 -606 203 -250 -67 -137 -175 558 -145 -26 -60 -749 -703 -645 -379 -71 663 -729 394 124 155 -641 -475 597 285 31 567 227 -710 694 364 -632 -577 70 398 -375 322 -3 426 634 -619 105 -135 -249 -403 -659 163 369 678 615 -337 446 -220 671 176 327 306 -421 -747 -578 467 9 260 -12 -513 518 -669 -10 735 -102 -27 425 656 416 494 -378 -125 -278 -565 58 493 708 -287 688 173 -630 660 -587 161 377 433 406 336 -166 -424 1 -201 20 209 564 -408 450 742 -454 -667 -689 -647 -538 -581 -44 -196 -93 28 690 -232 -693 332 -316 -750 247 -417 -94 654 707 -51 -733 -738 97 -480 -142 -4 289 344 215 329 -585 677 -231 -158 687 658 -252 -434 -399 -366 -342 -429 172 533 702 -653 174 715 -55 -731 459 695 -651 191 -428 -395 472 -470 478 512 -465 -318 -320 -625 412 139 -131 -29 727 621 -503 -572 0
737 749 -584 295 308 282 88 309 278 326 -83 286 -664 533 -632 -204 96 -575 -498 -25 -239 -651 209 -723 404 331 -352 639 72 -653 -201 676 310 -380 -44 303 -292 -573 -621 579 -494 -598 412 758 -638 -95 -585 251 692 -161 -685 -534 546 -279 207 -370 672 -190 184 -721 264 -57 234 -463 -55 -337 -199 -85 -695 710 208 -159 -490 -411 -414 694 530 -428 -260 469 675 -64 218 -191 -157 537 -425 -590 543 227 256 -16 386 361 106 -744 486 -235 170 608 517 -243 -196 236 203 -524 -406 547 -215 -48 -290 -661 520 -31 392 -418 -301 -600 34 757 574 647 698 -99 -636 761 495 -305 -678 271 -4 -448 462 483 -450 -699 -440 536 19 391 -120 -634 555 -62 457 -643 -14 197 268 70 -729 -5 59 -654 -518 -763 -219 113 -169 506 277 713 -409 726 266 -119 323 674 734 -325 -22 269 677 -458 -91 123 -681 289 15 516 156 720 93 702 687 -165 103 187 338 60 -108 319 -223 149 -67 706 -51 -551 222 212 -356 -660 -627 185 -705 747 438 594 -80 501 167 541 -324 -121 -718 252 26 -454 253 -522 -272 -750 -467 -712 505 368 527 335 68 41 -198 1 349 -507 -179 572 -756 -250 291 -578 -686 408 -321 509 407 87 -593 -29 -762 -471 -558 -760 -581 77 422 722 221 -69 566 -240 18 281 -468 124 312 -595 515 -112 333 -430 416 -626 477 322 -605 -637 711 560 -577 74 569 -748 -500 -433 -564 -116 -689 150 -562 86 -658 -114 552 -402 -287 -567 -510 -129 -382 299 -559 455 -716 -753 648 -58 81 -456 499 377 225 591 -442 684 -387 0
-728 -605 -147 530 735 18 -60 -173 -668 -600 70 569 273 -250 -197 -213 -391 -34 579 499 642 -22 -551 623 -324 492 -597 122 -351 -269 -540 185 301 748 6 -395 -105 553 -109 243 -494 76 -116 467 328 -504 -750 159 302 -434 -72 -65 168 -97 468 -365 -411 -42 726 -463 699 111 705 332 -36 -598 -476 -318 491 305 -131 -509 542 572 -732 -166 102 -413 -94 -194 -618 -478 -529 -704 515 312 445 -148 562 37 385 -760 459 341 -651 -746 503 583 -127 -690 -744 154 -106 -93 -464 761 83 -49 174 -235 689 762 -405 -239 -115 662 545 -674 323 344 534 -330 -258 355 -730 -519 -648 356 590 -228 371 -335 -560 594 -270 -381 125 -248 -645 152 -481 753 659 -393 -133 -282 31 161 -191 -666 63 -482 -754 472 716 -643 639 261 26 -90 -87 531 380 -236 398 738 -20 32 -134 -51 99 461 -641 -167 -596 120 -633 -220 -366 331 10 89 -326 123 203 -745 55 206 510 215 -384 -376 -720 -225 -327 -353 417 -46 -608 -431 626 -59 765 242 514 -310 396 -151 -558 -19 -339 -567 96 188 -193 -610 -711 9 -234 4 -199 -317 241 614 -67 -78 -110 483 -40 571 360 -695 -157 -419 450 -740 298 80 307 436 650 382 -652 -28 -409 169 286 -667 -644 -495 -170 -315 300 -82 634 688 -164 -420 422 -423 480 607 727 263 -75 582 316 145 751 533 520 731 -465 -487 430 427 -566 425 -747 -180 625 357 -714 135 -759 -136 -23 -717 -62 378 -580 -737 274 -313 -373 172 233 201 -578 563 -354 -309 669 -175 375 433 -153 329 -334 121 -198 -407 619 -383 -611 0
-625 306 71 408 -467 -760 538 -367 -689 340 -724 -256 293 126 -91 -659 557 436 -465 -554 -662 178 709 160 -9 534 -55 -692 232 74 -562 679 -668 -417 624 295 -159 -42 -102 -506 386 194 522 -645 758 -673 586 319 -608 725 -275 -343 -284 191 -59 -539 517 -653 351 464 233 -397 428 84 177 -206 19 -640 237 -413 14 152 -318 421 128 582 213 -450 -282 375 611 452 28 -445 496 470 -415 -266 587 214 424 -308 -551 -157 -573 -325 -108 111 -696 -285 -99 446 -302 326 -332 395 -621 -433 399 -520 637 526 -298 -299 305 -336 -530 581 148 495 -197 368 458 716 738 96 -741 -762 238 -642 115 -597 542 393 366 -75 -204 486 -127 225 456 -280 442 -40 350 -309 258 -100 -639 469 558 -231 549 -735 -196 144 363 743 -69 -61 -400 584 -754 -179 378 728 162 -697 -50 -383 -448 -672 -151 548 410 -612 374 -329 -296 423 -297 358 209 -263 457 392 564 -330 570 -629 -360 -22 -243 536 262 426 -248 -660 401 -420 462 46 -65 567 440 390 -188 -245 439 -688 690 -17 380 -156 656 -613 -763 411 459 649 -289 409 -270 -208 500 -444 -221 -513 -591 437 281 -43 492 -48 -422 618 -72 -497 594 341 480 -242 -249 133 113 365 -474 -764 348 -222 -481 -172 90 -21 603 -402 26 -31 -429 -381 -601 -396 475 -37 361 158 -137 -463 509 -729 -382 550 635 686 483 -346 407 546 -753 -169 35 138 41 353 632 -759 484 600 372 566 508 -32 76 710 -93 -704 595 -720 -86 -328 569 -211 184 218 427 585 -24 723 476 -174 580 -748 -561 288 -708 0
188 724 350 -576 -235 -760 22 527 -130 -152 118 449 -376 625 667 -67 -322 -124 -182 276 -472 -167 -28 -5 -398 -537 579 -218 -125 236 688 761 266 -608 -56 -657 -61 -165 -577 391 673 -39 310 36 418 -633 -17 425 -99 -75 -187 -20 -139 271 -60 -260 534 -629 73 -49 -241 459 -143 234 632 23 -748 -278 737 -423 53 -516 -368 -703 -700 671 -689 460 -220 384 -461 759 -456 219 594 430 -225 372 134 685 -7 -720 448 -232 421 -346 -109 -54 200 -499 753 522 -553 -539 581 -648 221 279 -367 -634 -286 404 490 558 -678 -428 -485 -571 -520 337 171 514 -580 -742 658 -284 -362 567 18 355 -261 679 -508 -416 335 237 -552 321 160 438 -410 206 -754 756 -401 -593 451 -72 326 -642 64 87 90 -407 -327 -397 123 481 296 -233 -357 25 584 -342 115 -743 -509 80 -533 464 -244 -569 -530 -328 304 447 725 55 166 -465 697 -405 519 81 712 -741 -214 727 -117 70 -450 603 -268 332 111 -16 189 757 -543 106 650 -555 501 -535 50 -668 -76 684 -1 511 -281 758 -162 -62 578 387 -307 -37 -503 176 -205 314 -550 -41 560 614 -10 572 255 -181 -419 723 116 -319 691 135 184 389 513 738 288 -669 -715 -749 -466 287 -619 588 250 -562 666 492 -694 444 -264 -131 -765 57 502 -246 331 -133 627 672 452 494 97 528 146 393 -548 -340 467 -427 -563 739 517 -212 4 -620 408 228 196 661 587 426 308 747 454 -320 618 -128 -145 717 -617 211 605 -390 -731 309 -591 -583 506 726 -762 -656 -709 744 541 -119 360 388 -358 -477 -339 0
-660 26 591 -674 -636 -446 616 -264 -639 280 -70 -423 -400 249 -533 386 27 -517 -5 -435 438 478 -207 278 -532 -414 -121 311 -158 -86 332 -600 426 627 -195 -228 526 714 -296 -456 392 102 -715 -198 -95 -625 -222 -374 506 74 135 345 -227 -67 -194 -55 -14 314 68 -9 -224 -569 404 703 -700 367 361 -99 351 558 -633 98 -398 -336 126 667 425 -269 695 171 -578 -538 189 -550 -33 -468 -612 -148 -17 -35 136 631 -191 726 692 80 640 -205 -275 -749 536 125 355 -163 -469 -582 156 755 167 626 -273 157 687 609 -601 -310 340 44 574 -605 -366 -518 573 -154 445 -459 276 -146 335 432 -193 594 151 -326 380 201 401 618 127 -161 589 145 -364 464 672 234 -259 -529 -713 200 -32 -268 509 22 313 -750 341 -486 176 365 479 -430 519 -487 -765 113 177 759 -448 -47 -159 704 -162 130 325 -53 -544 551 -442 -584 602 -611 223 -654 641 -164 409 613 -473 81 305 740 322 665 590 -736 -555 -596 760 204 -467 -510 -298 -110 299 -592 -416 -63 471 346 -19 197 -372 89 691 -244 238 -548 -552 226 29 -733 575 120 144 -504 -595 339 -105 -562 -6 -497 724 -180 290 300 -485 579 236 288 61 -57 -739 -607 209 54 -262 502 -399 419 762 338 643 -350 255 -440 686 149 -489 115 -88 707 -320 213 79 289 498 -31 632 257 -657 420 -356 481 725 -295 75 474 -141 -391 -668 -225 -457 -1 701 492 449 73 -342 140 282 -321 328 286 -696 104 -357 20 656 -173 711 -92 644 143 -690 150 301 214 -560 -246 -382 460 -598 -315 -353 0
510 -299 644 302 -737 677 -341 -97 -207 -659 -483 -311 -529 -509 130 242 693 547 55 -517 -241 -56 154 -533 -624 -391 -198 -297 279 -685 -462 -544 -468 -190 -82 -434 -240 20 -337 -641 -120 670 -447 105 647 628 -298 657 290 669 -235 10 750 -514 451 -396 -590 211 -698 -714 -735 -413 176 429 -709 152 -756 -755 -752 50 -263 -186 -414 -720 -330 357 -403 -567 77 75 199 -675 72 -49 438 595 -596 162 203 -765 -531 571 -477 608 363 232 362 265 14 -760 -78 -601 316 652 219 -122 -635 366 -629 498 -303 30 -581 745 -319 399 -335 -478 676 -262 -486 296 -441 164 -202 -521 -86 -269 328 -348 121 306 -404 660 -370 -312 304 -583 588 61 489 754 -550 -21 106 282 -505 -534 -143 93 -16 -273 286 -379 274 228 225 420 185 314 53 603 -707 -394 -482 -117 159 -24 196 157 461 40 649 -390 141 562 189 -440 -761 579 332 -1 -592 -63 -764 -320 619 -763 500 -74 -705 149 -617 -100 466 307 -193 701 -184 -216 -499 -350 -758 -244 -255 -591 -716 291 -481 135 101 -411 -565 -656 717 -431 -94 -491 -112 -326 691 -568 610 -680 220 -229 209 352 -634 -674 -210 450 673 48 -728 492 -459 37 -126 -356 -136 172 -493 -173 621 267 712 -371 131 -726 -171 421 -272 688 -200 -741 -119 -163 -46 -589 -39 364 -206 -419 250 -552 -215 116 284 -532 -557 -238 614 277 12 -665 616 699 643 -522 188 -455 372 432 -594 -8 18 423 35 536 724 -292 -381 -331 -711 -169 -257 566 -144 181 34 -490 560 -488 -418 205 473 -487 606 472 694 751 495 584 -275 0
280 457 374 -157 169 -199 -255 500 347 539 268 164 -428 143 644 -699 649 -332 -748 290 -89 257 -1 -62 -755 751 505 -297 -198 -530 -274 -683 -72 622 388 733 246 -325 -451 -584 -744 308 -734 28 716 -587 340 -527 -513 188 -580 49 -708 -536 -9 369 -122 706 697 -240 66 425 -654 -670 318 588 610 551 526 553 14 508 108 -241 -406 -299 -640 24 277 506 180 596 276 264 -189 -739 714 119 531 -233 -91 -203 -471 -258 -497 -313 499 -430 305 134 127 -210 73 99 -754 -656 503 576 -195 150 -200 41 688 -110 -151 658 -292 -435 -312 408 468 154 533 -366 32 -728 -162 -464 -745 -759 -349 -148 -524 -460 -260 -481 445 -473 -648 -668 356 -309 12 -583 184 27 -392 693 186 -323 582 -616 -694 692 -118 -201 139 50 -557 -731 611 105 288 764 671 116 579 -738 -8 -90 -220 -136 -463 -216 681 -275 -147 403 -364 -510 38 212 652 -367 634 213 -672 -355 129 -609 -81 -556 -279 631 -60 159 619 -68 5 -282 -251 507 548 158 532 -387 4 -262 191 206 234 307 736 547 757 -438 555 185 45 229 88 -315 715 405 689 -55 -591 320 -562 608 628 106 -402 -371 26 -96 -516 6 418 -701 -419 -423 -266 -685 179 -509 -71 10 217 -182 -573 -570 -598 747 -636 79 -61 -575 183 -504 80 -63 -293 287 226 350 595 639 33 -272 -436 -401 -482 -316 124 338 -590 138 552 -47 663 -291 -659 295 742 679 444 132 -501 165 543 131 52 478 -112 719 242 109 -615 -208 420 -727 239 -722 550 -377 -487 -586 711 -489 -474 -760 -677 -434 -128 0
-417 -347 452 70 317 -609 29 -243 503 -157 716 -75 -709 -725 335 17 -247 16 254 319 -684 -423 679 -152 215 -93 -292 -530 361 -231 111 444 605 -376 604 147 88 342 -463 733 511 633 -136 87 -674 158 -162 -518 596 558 -582 -762 731 -547 -577 -458 -510 -406 721 196 314 -560 579 -676 -309 -500 30 72 218 -589 118 -153 477 495 -359 574 -207 349 137 642 161 -82 622 -504 -628 257 404 370 -673 556 -512 -63 133 -407 395 -630 732 346 -365 99 -619 -559 174 -707 -487 -264 -629 -711 -727 -34 -245 737 -485 -553 -122 -97 -754 540 134 708 704 -505 544 -514 697 -675 -238 -78 580 -316 -299 -646 130 -600 -302 384 360 699 194 682 714 467 -524 -240 -748 -62 -382 287 561 672 576 494 -145 -351 58 -392 -213 572 239 -224 388 -533 27 -408 46 603 -341 -364 465 340 211 598 -244 -464 -7 205 77 668 -95 637 614 744 625 541 -403 -638 -288 -44 659 280 15 639 -324 167 742 -263 -705 219 400 -662 -123 757 -431 -318 473 43 749 455 198 602 366 -330 501 -310 -271 482 281 502 703 -420 681 261 275 687 250 117 -405 706 -385 656 338 -383 188 -39 446 -179 50 -441 726 -426 -47 -746 429 180 -274 -3 -355 -678 476 478 -569 -52 -276 337 -456 -193 -84 178 648 -490 -278 -724 -272 -486 -251 139 108 -216 -575 422 666 283 -9 442 -390 -492 334 249 -499 -259 592 -295 -745 345 588 377 -149 -591 -568 -242 430 375 57 233 657 59 253 531 -293 391 -101 120 -565 -313 -343 466 700 -617 -156 539 206 -102 -394 191 -350 0
-707 748 -81 -45 714 -390 381 -109 -53 349 422 449 -147 -252 -217 639 250 230 -180 -218 12 -503 -283 2 341 680 -305 579 -561 325 632 -8 728 729 -451 475 64 -68 -200 -535 -645 -692 -71 621 -612 242 558 -484 -373 114 492 350 -165 -628 -418 333 275 -566 583 -681 98 153 293 127 276 761 -265 69 -285 67 -344 -693 14 -673 540 310 -236 -173 -388 538 -585 -356 -176 313 107 -542 119 323 -382 546 378 154 -29 315 740 -760 126 235 -320 21 -464 -49 675 758 308 563 557 490 524 -243 -442 299 732 646 -703 562 219 -634 199 604 -290 118 82 764 -754 459 425 -371 547 480 454 146 686 -545 -575 405 -368 -520 431 17 241 370 140 -478 -222 429 37 -255 -477 408 -507 104 -277 702 -18 -553 533 -61 -70 704 -554 -672 -512 -122 -483 336 -161 669 75 606 84 666 -326 -357 287 -343 -105 485 -34 -307 328 411 -440 195 511 633 -245 -189 -73 696 183 260 -314 -125 -141 619 -697 716 31 -168 -602 211 -470 426 -682 179 735 167 497 -132 -659 738 448 317 601 635 -205 -678 719 321 -539 -629 192 -396 244 358 765 -298 -90 215 -143 472 -269 -749 -662 -649 630 152 -586 514 -312 491 605 513 591 -617 -699 457 578 660 -204 129 316 -654 658 48 193 552 334 -733 -412 -391 92 -186 16 -421 -721 -580 93 259 -60 -410 399 603 -158 -501 691 -529 608 -212 100 725 -376 267 -319 -170 113 743 504 -576 -532 462 346 434 -201 488 -581 55 -380 687 -428 -663 -468 757 117 -487 -751 756 -550 -567 534 364 270 -753 -413 0
-30 -66 -42 468 -340 -483 235 -321 532 362 -287 295 597 -150 -509 410 -540 -502 -438 119 -44 176 -178 -228 630 716 501 647 572 78 -747 207 -606 -208 503 -368 -310 284 361 -674 477 -94 311 -244 271 3 416 751 -743 593 678 -101 707 696 269 -59 -534 -77 546 670 -618 750 442 -672 -147 714 607 -267 473 -535 652 -308 -70 111 -194 636 -169 682 63 -418 -641 -342 -257 19 132 109 527 323 -517 165 286 -124 188 441 -511 -196 -291 522 -157 280 474 518 -127 573 -605 693 -510 -57 -241 403 -580 551 -212 588 -721 -645 -254 -592 -190 333 56 735 -738 -152 -34 363 601 125 -754 -319 25 -456 400 396 15 344 -454 -381 -445 -545 -136 -417 210 357 -106 662 -660 -133 405 -145 23 -203 -646 699 -37 -484 140 666 16 -539 -382 489 708 -110 663 -5 -99 -46 -620 -419 274 576 493 -669 443 -631 -130 -250 -82 300 -471 643 629 -209 -430 252 523 22 727 4 55 -172 440 326 158 -255 429 278 -627 713 -434 555 -297 464 -625 -623 -2 -556 231 197 -298 161 -171 648 268 -175 -151 -179 384 557 521 -58 -74 76 -684 -457 -453 -114 191 -394 -472 513 -719 718 -343 141 129 -448 258 332 12 211 6 -9 -189 626 654 -232 225 -265 -239 603 -561 -220 -95 -570 -13 347 -51 -446 -123 68 558 729 -312 -113 516 -279 -162 740 482 115 -213 -697 -224 690 -752 -485 -356 -568 334 -530 536 383 -709 -299 264 715 -31 -500 358 -616 227 -104 -658 218 -117 -447 -451 -102 313 -574 -337 45 338 38 413 -759 -756 275 726 -153 90 -692 -93 0
745 529 720 -646 392 110 315 -507 453 -294 -672 -365 -123 216 -442 -172 105 -17 -362 266 576 511 -543 311 289 643 542 -301 612 400 637 690 430 -757 509 678 -746 312 -754 738 370 -537 -194 727 22 228 725 -230 -570 195 664 -657 -336 -167 -384 -534 -733 -185 737 642 613 -502 259 358 -363 -342 -408 -513 -274 -758 -382 -560 -275 425 175 631 -36 209 -405 256 -257 517 -217 549 232 731 602 -580 -388 -605 124 -699 -688 332 295 -162 582 -261 347 111 223 674 -750 470 -499 457 -568 557 445 -712 -177 -178 713 16 70 119 706 399 531 440 666 553 702 -141 120 349 -122 717 -567 15 251 -607 75 577 -59 -112 -519 -603 645 -296 155 -40 165 54 291 95 722 -183 -106 375 -685 -468 -355 -421 -695 -320 439 -385 -541 -220 288 12 -350 44 703 -207 300 427 -566 -683 428 -310 540 -764 435 -203 608 667 487 530 130 -601 564 65 -281 443 -756 -516 -180 -345 50 -524 700 464 571 -253 -92 -268 -501 397 -107 -436 -592 -450 -444 -455 -650 594 -189 451 538 171 -20 292 447 57 660 -343 309 723 466 390 -208 243 515 -1 734 -344 -536 -71 -633 43 117 413 -379 -611 138 69 -617 -606 129 137 -659 -98 -72 -407 378 -583 626 469 -669 -233 -29 -174 -551 -108 -677 -429 8 544 32 593 307 -489 -374 740 80 234 691 -595 -418 298 585 446 396 -649 414 -319 481 505 -546 -655 -269 465 432 168 554 -225 -474 -204 125 -142 -221 51 -190 -299 293 -318 314 573 545 -93 83 -673 278 -748 351 255 -337 -654 263 321 -729 -503 277 0
201 -743 -105 598 183 117 -169 -528 -472 -454 -507 -408 -274 309 -629 762 -475 -365 -305 -37 -491 195 159 387 -417 -357 -12 103 619 40 515 -465 233 -323 -415 -191 539 -330 -280 -147 -134 689 -582 384 -690 -270 -523 -404 -333 525 -725 -615 -307 -226 49 541 -43 -254 761 -712 -571 -627 697 -646 463 754 -765 -564 -674 530 594 -211 360 244 707 -490 82 139 207 439 -218 184 -75 -592 -166 554 -62 -351 -756 673 259 295 -239 729 -199 -709 -55 -310 606 -565 -257 378 -314 737 8 1 -204 -315 573 329 -20 377 72 -208 -58 -635 -508 -36 -241 407 584 -764 313 225 -234 264 -527 -70 641 -108 -694 -77 247 561 -198 -466 382 381 279 -336 -354 93 -469 604 -112 479 -685 -758 658 101 -555 662 -46 -168 -400 248 553 146 -317 200 -346 372 625 -237 748 292 -714 -542 -485 -209 435 -250 -33 251 613 -64 731 -459 -438 163 -461 664 303 -591 744 344 -757 390 -745 -570 487 -230 755 -50 -138 532 -610 -31 526 512 -298 25 468 -196 -642 -452 11 -224 -59 -348 -261 288 367 116 497 467 -17 -352 -284 133 -620 15 -291 -611 -157 616 -520 173 -349 751 301 164 739 678 -618 -343 325 -23 659 -10 545 210 -587 158 -102 -340 431 60 273 499 696 692 -7 -583 612 661 52 -675 -328 -84 738 455 -5 483 -370 457 -752 727 285 728 410 383 176 -502 412 538 -711 79 736 -695 -516 -653 -506 -540 546 126 522 137 428 363 578 458 -633 735 -91 670 216 -281 544 -141 -733 122 -655 -258 -626 -300 421 92 432 509 -118 120 414 -132 628 0
145 445 638 -581 -208 -415 344 -141 -211 -156 536 683 508 -620 -52 -264 -667 239 -149 39 207 -133 497 -237 744 -452 -531 -224 -58 756 -437 219 -723 194 -24 -427 -260 704 112 -222 -111 -619 558 137 -130 -231 -500 556 421 -341 -5 134 -564 -127 495 -245 -652 -731 -419 9 -669 -494 -280 575 -562 -741 11 -425 -481 584 -34 567 -103 470 83 712 -272 -538 -745 -225 -330 106 368 -629 663 406 -447 528 -701 -297 -60 252 461 152 -681 337 196 496 -758 -665 174 -440 121 -693 -49 -601 -432 -714 550 -148 478 -220 -441 -418 -473 321 403 180 566 104 743 -110 -454 488 -74 -78 -574 563 -215 23 -672 94 -438 259 -749 -541 342 -474 135 726 -747 -450 505 737 382 405 765 374 378 733 -72 -532 165 243 761 471 -114 -108 292 276 355 -394 -173 15 -59 610 451 -213 97 688 537 587 66 81 -751 -480 -694 322 446 -477 185 -740 308 138 725 -635 -525 -507 -759 650 226 -358 -257 -529 -146 -407 -385 709 389 210 618 -25 246 -377 -278 -147 235 -395 -527 658 402 95 283 -509 523 530 -423 -754 -102 64 -459 682 -346 -533 201 183 179 631 263 -734 -348 -548 511 -242 468 685 122 -247 82 317 -143 -192 680 303 345 713 -615 -178 -71 644 -653 -42 -628 -249 304 430 57 621 -404 349 -195 161 223 -157 -466 6 416 -547 721 -85 624 687 -519 113 -93 -140 -193 -455 -98 -700 -753 -261 369 -372 275 62 -429 206 -12 294 -540 268 -177 168 -719 142 236 233 699 -705 -218 -18 -546 -217 -702 123 417 399 -131 570 715 -559 746 -560 -573 0
-687 652 -105 -520 -518 -143 -17 753 -190 -72 -480 396 -628 380 -295 96 -654 715 -355 -260 -365 -121 -474 -376 -617 -313 536 -550 -528 440 81 -168 -656 -6 -63 300 -449 92 -712 56 395 167 88 447 74 722 -165 -288 -258 -537 -178 -589 -519 -353 473 539 64 304 399 324 227 -674 -153 686 194 -339 -729 409 93 -446 -379 -497 -430 126 225 315 -247 -464 -186 -489 363 694 -176 237 -740 718 -504 -749 670 89 419 562 -415 -607 85 389 -26 -298 699 481 -502 393 335 564 -754 407 -323 -458 624 -677 -673 576 132 312 -506 -5 -566 -448 572 482 39 362 -112 147 -627 512 146 368 586 -196 -762 602 573 610 -95 -556 1 327 -592 347 12 -41 100 119 403 -662 704 382 91 222 -52 603 -349 160 131 -619 122 -25 -583 530 188 760 -549 169 -551 360 441 276 719 -601 246 765 -219 -179 29 -261 -405 -757 182 69 -663 -751 -636 -523 -591 698 -621 306 244 251 292 -422 320 -455 354 -543 463 -401 -268 695 443 560 84 -210 124 -432 -212 162 109 223 -310 -653 510 -181 -413 -333 728 476 -541 -257 -285 352 80 220 -15 -689 -613 467 -408 490 282 -701 -705 412 -692 456 -290 -671 203 685 -357 444 -192 -386 -746 534 145 683 366 149 221 -311 51 450 -723 -666 569 -289 -3 -255 -343 651 581 166 587 -555 -47 214 758 291 -350 548 -38 110 454 -43 -55 -371 726 -70 137 28 442 -273 -546 -207 752 606 -620 527 170 -433 668 20 -297 -340 -571 -27 425 -414 -747 253 140 513 631 113 -24 359 477 735 -152 9 159 725 -487 0
190 -82 -320 -691 -72 -109 -439 -425 -735 -31 -576 239 -24 -650 442 -54 350 708 -739 360 -124 621 -732 87 -77 -434 -338 123 383 -444 -351 -596 250 -374 -74 329 398 91 -9 -459 451 -690 675 390 -101 -558 32 -511 -175 -70 -378 549 725 -563 -361 -232 -134 -143 -301 616 3 -258 182 -147 523 -652 342 -29 170 -294 -35 287 478 397 -603 -296 -702 -12 -186 -615 414 -497 -524 264 577 -649 -411 165 679 507 -547 -6 -116 260 30 555 570 230 343 -475 -379 613 127 541 297 667 -335 -632 -588 -199 261 -336 -63 455 348 -713 654 -566 -370 -367 -495 -692 448 -268 384 28 160 518 23 -217 697 469 -93 -231 -323 -212 -396 -286 -483 403 -658 312 -164 -415 -277 -405 505 528 -16 400 -646 -131 -482 -275 375 60 611 -53 -419 -176 -553 111 757 -73 -8 -13 -317 333 -265 -567 -645 -238 -195 564 610 130 10 197 -540 640 413 522 740 748 546 -492 -228 -662 -5 761 -727 -159 -485 550 -318 408 -477 529 198 52 -680 537 -269 153 -352 118 157 -98 -489 -604 17 -431 -629 106 -138 -721 421 248 -545 -454 -48 -247 196 215 40 -119 -256 601 -647 -500 -753 -441 -682 357 220 -422 308 -310 410 -453 486 -167 490 636 446 -714 -659 -181 229 502 -161 501 765 -349 -412 -216 84 -460 372 203 516 -189 530 752 706 -503 -242 -78 81 594 83 43 148 579 346 586 240 2 88 589 642 174 648 -437 -657 305 -724 76 96 38 330 122 146 -363 -457 747 552 494 214 25 -331 -606 386 -69 -755 433 -284 104 643 -559 42 -392 -556 -316 -233 0
628 37 487 -312 393 656 688 646 754 -742 -267 498 292 -489 -299 -604 -590 -123 -490 314 -765 -564 77 338 -57 -18 -414 415 585 -665 -718 -315 -480 -209 203 756 84 -595 764 -345 687 230 -347 713 -465 -591 -8 -626 -625 -96 -608 -370 -381 -156 215 27 -630 443 -42 -303 616 437 -593 34 -14 -36 360 -464 -700 462 -78 348 -309 567 -396 644 -739 660 447 -85 -419 478 -709 365 256 738 -538 723 -484 -149 86 351 -239 293 -13 -703 -294 29 -87 611 214 -720 672 135 -213 622 655 -94 103 -386 -510 668 -236 706 469 75 537 -457 -48 153 -273 -146 -184 702 588 -124 -645 411 -425 -50 -582 67 -658 -322 -15 -514 -544 504 -319 -439 -332 562 759 609 -117 68 249 193 350 -710 410 -343 -542 -177 -497 -673 389 201 -308 -101 -187 -486 -627 -607 -70 -574 -159 -617 494 -31 -17 -659 -22 -119 -186 -375 -657 97 533 194 492 47 -523 281 -545 337 300 -268 331 -228 -473 -118 -506 727 -647 -551 -631 -461 -65 376 638 583 41 -90 642 -430 145 248 -287 431 568 -147 -475 -76 -587 317 -664 667 612 134 -682 -120 -412 649 367 -637 10 -297 49 227 -320 -620 220 740 -238 -459 225 246 -546 496 202 -454 516 398 335 632 -635 -207 499 -690 511 -275 -200 572 708 368 -554 121 -56 409 334 -438 -526 -208 404 289 -413 -373 -674 541 -245 -724 -634 216 379 185 45 569 -140 -20 695 434 -229 -733 302 -746 109 -463 501 -613 59 734 -479 175 -116 661 -252 399 -559 -304 -421 -80 678 240 -745 -527 -707 -279 679 -181 -295 -166 266 11 -529 0
-344 -725 -360 -465 -93 -507 88 426 711 591 74 -647 -73 -327 -413 -163 -263 -364 459 352 277 -656 235 -422 -80 -85 23 -531 336 119 182 148 705 25 385 -681 533 -414 -201 110 760 764 -157 -598 -521 -297 -5 -535 -748 -458 -69 338 467 115 378 188 -149 -105 -634 46 -140 -567 719 669 -281 671 -403 566 -212 735 461 -510 736 -94 -165 391 470 637 -84 -234 -430 424 361 -595 -553 -365 557 -556 -154 614 -751 -153 -257 20 98 398 513 -45 -173 346 -96 -136 695 -174 138 112 -194 -629 116 -450 -266 606 -126 -181 -368 294 237 213 -300 171 429 -340 -139 64 -70 -164 -177 449 -699 626 197 262 -520 -562 238 -90 723 -495 -498 -512 -350 -267 -279 534 -503 -599 541 482 703 -611 2 -290 -552 -754 -332 -477 588 -146 -224 -499 -335 166 62 303 -714 444 -758 -569 -603 -287 670 -678 323 -434 -223 -331 674 -386 -104 392 -184 57 225 -460 -150 76 324 -333 111 480 630 -677 -63 -127 270 523 -472 52 9 410 605 252 -26 -47 -542 500 204 415 712 -476 -228 102 132 68 405 694 -672 16 -505 696 353 632 732 657 -420 431 -318 375 423 -589 -473 -721 178 156 -550 -628 726 -583 522 -216 425 -491 -199 -67 151 -750 -53 227 -232 -58 -435 -440 -342 709 -554 412 697 355 -680 396 648 -71 -546 -536 51 250 -730 -362 -447 32 -343 87 -6 519 210 -516 280 219 638 -393 -479 10 222 715 -33 -170 369 -246 600 -284 -749 -152 528 650 42 -582 737 -661 -357 308 214 299 539 -21 231 -527 576 544 -54 428 -319 -301 -608 618 315 0
291 -16 267 -719 -132 502 443 337 -738 433 292 691 -694 323 141 675 50 96 -45 547 -217 574 -236 327 -179 734 -721 297 569 -314 117 -710 322 459 -391 -677 -220 -639 108 -331 -114 73 434 277 -548 -619 -424 602 492 -221 156 465 561 756 562 385 -356 590 100 -748 39 622 -79 521 -299 600 598 -127 201 -464 525 14 495 346 52 -664 -527 -648 -263 33 -164 -413 -30 -224 -686 -35 13 -470 306 544 -105 -25 -380 -716 629 -699 -97 -296 -553 260 654 -466 238 712 -344 301 -246 507 -298 563 378 -753 -70 608 -718 -340 678 -27 758 555 460 -21 426 741 257 -481 -112 -567 489 717 749 641 120 158 281 757 -286 -17 620 -338 -420 276 -599 -588 -526 -202 -523 288 666 -596 343 -154 -683 -554 -658 274 635 595 498 -300 53 653 582 -546 262 625 -630 -398 -51 473 -386 -407 -144 294 -752 382 -743 -404 -208 -84 -578 -196 -390 516 -131 713 -672 137 -372 280 -725 -258 369 436 -731 -659 -197 -388 740 152 -245 612 44 -335 312 528 -34 732 218 28 -687 454 359 -374 -341 -54 138 364 -159 -425 560 -490 -193 222 -715 -171 232 616 649 -155 177 -227 -431 673 -321 -765 -24 113 -469 -272 571 -477 607 597 668 -61 447 211 -500 -325 90 194 726 504 -432 587 624 568 -644 -290 402 209 517 62 422 -305 -662 551 20 -130 510 203 -82 -77 60 74 223 -10 101 83 661 106 -445 660 497 -350 -632 324 -104 361 115 601 -320 349 4 676 -216 742 -697 705 558 -665 37 631 -251 -328 199 482 540 -126 533 -399 237 -480 -264 0
-98 -745 -418 -536 310 660 179 625 -718 28 567 257 -727 232 -683 -719 -184 488 595 -321 410 -557 -71 38 -156 -575 332 -386 -59 688 -304 -159 89 -46 452 675 -3 5 -516 508 -453 264 -705 539 740 -763 14 -33 -636 256 15 751 750 -570 -449 -94 -687 -81 -56 -225 448 298 -475 -319 -678 708 -92 354 -599 670 577 254 -62 -706 322 288 -174 -723 -541 363 700 645 413 368 -186 744 747 -185 18 496 641 -484 132 335 295 192 -291 305 612 -211 -472 -537 -370 -695 -154 703 -173 728 -263 -359 -344 -530 114 -517 -665 -292 726 487 652 326 -105 369 550 -394 19 -401 673 -137 265 -618 438 -165 512 302 -447 -644 -100 -353 -711 662 -301 -646 -49 77 285 131 624 581 704 17 -44 647 74 -72 -561 133 -104 205 -228 -148 69 519 -455 145 -576 255 -296 207 757 -150 640 -239 51 -657 252 -110 169 107 428 144 755 -699 722 -451 -242 731 -276 474 -272 562 -441 566 661 -764 -170 -210 142 140 -141 153 -626 -238 -360 714 544 188 396 -167 -42 554 -273 528 7 520 -378 -337 284 -650 742 -563 22 390 439 48 134 555 155 585 323 -493 -171 96 -139 241 -30 377 -526 124 -583 318 495 106 -383 -43 -202 -408 278 -157 -668 20 -376 224 -494 -420 -651 -90 118 -477 372 379 521 411 701 -649 -266 -694 -631 587 -281 429 -166 216 556 -534 -686 293 -58 115 182 198 -643 -437 226 -87 -361 -514 -462 -533 -590 551 407 -287 -47 325 609 579 690 616 392 -6 183 -215 75 730 -146 -221 -558 -760 -227 -434 -676 -126 497 -1 -540 0
-638 250 -426 -166 -470 -631 -477 405 514 -676 -207 419 644 9 624 240 724 -484 329 -671 -411 -103 -79 764 -40 -231 698 37 -84 -668 43 139 151 -31 -351 -469 707 -392 711 282 -681 563 355 -69 -727 363 -62 556 745 594 -260 637 -370 -642 314 -590 636 -12 5 -418 349 -393 280 -358 527 -734 106 -693 422 749 654 708 445 29 261 174 565 -49 -6 -453 571 746 334 658 -732 -320 218 519 -726 -460 165 -757 -695 409 -91 391 -327 -308 -377 313 427 537 325 -620 -748 540 -442 264 -298 551 -462 -733 235 39 159 -650 -577 112 682 -687 -82 443 646 597 -302 126 502 513 651 579 210 -633 742 -685 -589 499 -168 254 737 -330 -13 273 -660 -336 -743 143 -241 217 38 -74 -584 -373 56 -360 -492 128 109 145 -467 -617 -220 150 129 -413 -578 25 -341 292 -604 -175 412 -119 -10 461 -244 525 -30 -291 433 214 397 -222 32 619 238 -436 296 233 -57 656 187 -155 81 283 -300 -378 -289 381 307 -383 -465 -44 -498 -739 -601 -416 -750 614 -744 722 -657 622 -528 667 331 346 -243 -113 -398 -178 621 274 -130 -311 64 -756 -66 206 253 481 123 582 -406 -755 -679 -464 -618 640 -595 -347 -610 517 632 -229 -137 -761 -93 683 -662 -26 -284 -599 -54 -674 403 -176 -15 255 694 -368 18 489 350 447 463 714 153 234 652 -344 -147 588 -200 -225 -249 -603 468 -719 -271 415 -41 -290 45 -389 108 171 382 592 83 616 371 385 715 487 -762 -201 665 -576 759 -104 716 653 19 435 23 288 704 -691 -452 -3 475 -753 -216 523 34 0
-476 231 603 -227 454 -480 -180 -386 433 85 322 -233 273 -358 391 -525 -639 -330 -645 444 727 348 352 434 178 -66 -302 -435 191 296 610 15 -197 693 -62 551 -496 -42 293 153 -311 -316 72 136 159 578 660 -483 -224 132 540 -506 243 -2 -25 277 721 609 -48 207 517 -452 -333 186 149 -166 764 40 565 -572 -673 274 753 -761 383 757 212 664 -396 -200 -738 -580 152 147 422 170 -558 -29 579 685 -731 633 -264 -77 298 -232 -350 118 -192 -513 321 13 599 -399 -672 355 210 286 -730 328 281 411 -696 -7 70 318 729 -188 -417 -101 187 39 621 189 -87 82 -127 173 88 707 133 271 -110 258 402 63 280 -126 429 -464 255 -30 -598 -179 373 -686 162 214 300 -371 219 71 176 343 -700 -457 -260 683 34 -175 661 -654 -532 591 -671 -628 544 -285 252 93 596 121 -448 161 -450 606 -183 566 421 -313 604 -675 -662 -695 -677 541 702 99 289 84 365 53 278 701 -688 -548 16 -560 193 269 -222 691 346 43 732 74 -455 -364 -573 437 -755 608 -276 728 122 600 742 642 547 -12 27 -297 443 -625 403 245 493 564 555 -144 -485 -487 96 406 690 372 -632 -616 131 -49 -397 -54 -518 -499 -272 363 259 -204 412 81 -299 -206 202 491 -726 306 651 -449 631 253 -595 -670 -256 340 -320 722 51 623 -637 -100 -539 470 324 -177 -759 -199 -211 -339 32 -552 -427 -115 76 -747 309 -760 181 -665 423 -203 762 -52 -475 90 -116 120 698 -17 -331 -157 -5 -494 198 -24 -194 735 261 -375 14 -154 587 -217 648 482 -704 0
-698 -162 -134 672 12 450 263 -403 481 -755 579 451 -101 -435 -363 222 100 495 -187 364 -386 570 -275 -15 589 -696 566 -328 -649 -542 -269 -381 -486 -632 121 447 407 -677 468 429 576 408 -277 697 -501 401 -660 681 262 -254 750 398 -385 -726 456 -567 -157 93 -587 -97 165 279 268 761 668 180 -513 509 48 -216 76 736 -301 -441 -421 88 -114 -348 530 -569 343 234 453 276 -535 -443 354 520 512 -290 359 548 -713 -683 472 -78 -546 -590 117 -229 -631 -105 198 723 -158 522 -446 -309 8 630 108 63 -661 684 702 -273 281 619 68 687 150 -689 329 -356 -94 285 745 122 -318 -634 711 -98 -14 142 -552 -646 228 -367 475 -331 340 -516 213 -557 605 747 466 602 -544 -651 47 -518 347 -257 -327 -478 -250 133 73 -547 -551 65 463 417 326 -402 -604 -168 -601 -462 183 192 608 355 4 205 360 -293 -607 740 138 291 641 662 -666 372 -437 60 185 -682 -35 -474 629 17 -558 -256 514 153 710 754 670 -201 -414 -762 -626 -247 559 218 -536 82 236 244 227 -628 99 596 638 -382 40 -597 38 -583 365 -716 610 -757 -430 452 -286 484 371 759 494 523 -280 305 -195 -233 374 -378 -500 -131 278 -525 409 -742 2 284 581 -471 -302 64 746 748 -135 349 537 366 19 -582 -178 91 -679 -637 487 295 -680 238 -399 -126 -524 127 404 556 418 -124 -311 -704 163 -538 510 109 -664 -200 -621 -214 341 267 -7 489 152 643 202 -560 444 -717 337 571 362 -239 -719 -483 756 -70 272 -357 23 -459 730 -562 59 264 439 -361 599 0
-89 99 -701 -434 724 -353 329 361 153 303 342 678 502 417 -653 375 32 409 -288 92 -495 408 -753 -397 -256 255 186 -105 603 -157 -627 174 -194 -667 -492 474 -232 47 555 144 -246 -533 -306 -289 -501 -333 -422 -36 -554 -632 37 -66 95 97 504 -682 -579 254 -722 -316 515 -222 -4 583 79 327 -114 -512 -8 458 402 -195 729 389 -283 235 368 -130 437 -188 -588 413 276 -571 -34 -764 -758 -253 618 234 -565 -22 720 -755 670 -53 631 277 -159 27 -237 -41 -563 415 636 -681 -457 -745 168 614 348 536 -613 651 -19 -310 314 279 610 -210 -273 -680 150 -740 -418 -446 -757 377 271 544 301 -612 -647 -214 -355 541 -761 146 454 58 473 52 727 479 702 663 28 723 -531 -42 432 -619 -453 -218 325 -321 575 -574 642 423 545 -160 -499 703 -369 -57 674 -717 -109 526 585 590 705 252 -284 394 -463 191 -62 517 -142 582 566 -328 -410 45 -640 70 -135 572 80 -595 -712 -126 -386 -414 -76 570 -55 -491 236 -280 551 233 -249 275 487 522 -265 746 239 350 176 -503 483 -438 127 68 -138 620 -405 -690 286 -539 354 2 341 -131 -469 -709 -489 -412 -381 -101 621 -48 638 -547 -313 -549 -691 -20 -360 107 330 -5 140 164 -731 337 573 -496 180 -335 205 742 -534 -82 -718 485 505 43 -760 390 537 49 134 -464 -117 141 -158 -185 -282 -659 -591 343 351 -421 -336 431 1 684 576 -435 -461 644 262 -604 -339 365 -103 270 -743 305 707 -602 129 242 -10 -272 -311 -151 -356 -593 -666 75 -203 -399 -548 -267 -278 676 721 608 -598 0
191 418 -64 -614 -563 106 -87 205 -206 665 659 140 263 -716 -465 -307 619 -655 114 331 -18 -24 -200 640 -561 -14 -89 714 32 254 41 -523 -593 -137 269 96 219 522 -227 151 688 -470 -480 210 -660 352 153 -535 -193 -488 517 393 -374 -685 -708 -164 121 526 -126 646 -217 27 584 -180 339 477 691 -673 -425 -235 -582 -534 -639 491 -76 -693 -358 -173 265 -61 -100 -701 493 -740 692 -26 -46 739 -596 -507 -450 128 -562 -657 -138 -322 125 -733 -365 -169 -35 -750 -9 -237 -330 -326 -538 -2 -327 -392 -730 -20 142 240 -19 622 -187 -466 -132 553 -29 177 -172 484 -528 -618 -28 92 86 -308 315 104 -251 -649 -113 423 -124 6 213 274 361 -82 448 -742 -585 -514 -5 302 -111 497 -564 -280 336 -520 397 -148 -478 63 -243 -304 -611 728 -548 -204 -428 630 486 -74 735 762 -342 457 -408 386 -394 239 -401 666 -726 -53 502 -147 -15 376 -379 266 -719 656 55 749 615 58 -559 567 432 145 637 -426 -183 162 355 -634 287 -101 -683 -557 314 -259 404 17 -31 -94 -127 494 -72 -242 -112 -267 373 328 -414 -388 318 471 -608 556 78 689 -461 201 178 499 698 -405 -30 512 -636 52 -508 -569 -171 152 65 -717 -131 -451 591 413 166 197 -558 252 -516 629 -603 246 199 464 -44 756 305 -154 763 21 -479 290 161 -746 -43 -594 420 703 549 -678 -540 764 474 442 73 -744 -222 -291 -720 -444 -672 -230 456 547 223 -707 -560 647 -543 115 346 238 -674 -437 306 597 -621 483 455 -580 -613 -12 39 -736 -757 575 91 -650 66 317 -599 0
-295 615 -505 453 334 -66 507 -710 142 253 747 -260 358 348 40 -62 737 -534 -403 396 476 329 -136 -116 -556 23 202 80 240 -410 -480 -205 -701 365 404 595 762 155 1 486 416 -252 -731 -494 -379 502 -226 110 192 -90 724 -442 46 -378 -399 -450 406 143 -699 572 352 14 -398 201 720 18 -6 -457 -157 149 -592 -393 -373 -665 -16 391 109 -284 -653 408 -721 -256 32 625 571 -757 -750 581 -120 533 -188 366 -648 -741 740 -725 167 -760 159 125 -435 94 -428 745 587 -36 -221 -369 -715 -553 711 93 661 -42 -79 -302 -576 609 -362 -241 328 257 -101 -596 212 -663 -311 359 -291 28 -17 72 -400 259 684 344 -749 -190 -248 -144 26 313 -423 481 483 -588 -10 -204 763 -605 655 646 -654 735 -171 551 -327 -459 514 647 115 624 -331 -383 -401 -49 -279 -497 -285 -364 -729 287 -643 133 -292 -688 -162 -299 318 -266 397 -641 -490 -181 -520 213 607 -138 548 82 4 -185 -631 -440 -632 -357 504 449 -543 345 -89 603 -121 689 461 -191 -515 618 614 550 755 184 574 -217 473 674 598 -759 -425 582 -326 -444 104 382 -402 -676 -207 -3 -218 698 418 -85 628 -485 -489 -200 -472 -558 103 150 694 419 516 -211 -739 244 -431 -479 564 215 -703 -209 -462 -9 -622 -210 -751 -168 -45 41 -91 377 -374 296 -34 -559 179 -206 -433 -169 539 265 634 -268 123 591 303 567 555 8 128 -522 37 -471 -21 106 -182 -47 -513 43 621 -112 161 -294 163 642 371 -430 718 275 65 -262 176 87 -467 697 -131 -503 713 644 -394 356 368 332 -118 0
