c Random CNF formula
p cnf 500 128
-284 199 -437 364 428 -483 466 434 -497 470 -243 241 179 395 380 186 440 -12 310 -500 326 99 163 207 154 -439 84 -407 374 -7 -307 -124 157 -278 -155 496 38 -91 33 167 274 361 -137 -347 -92 391 -492 237 192 67 211 -329 303 -78 -11 342 -389 306 444 426 -455 34 122 -318 350 168 343 50 -226 461 -205 -469 288 239 -223 -378 354 -490 45 -181 -414 107 -142 487 -130 20 375 116 103 294 259 462 -81 285 -349 -258 -117 -178 -213 -410 -396 -224 -373 -228 -367 -113 291 52 139 286 279 -87 421 -371 244 215 -429 -358 -227 433 406 -108 -485 246 -271 0
-412 355 -105 406 -28 -147 -493 57 215 -32 -1 -300 259 -429 -374 15 470 252 6 128 368 -16 -457 -49 266 97 -3 -423 -408 471 -446 -108 -163 10 -180 -122 -53 -2 68 138 417 149 -466 228 -398 404 -367 -299 467 330 126 -234 346 -317 -250 219 -421 -347 -267 304 -165 -58 -127 142 94 -174 281 -458 -151 -495 102 -8 -141 -485 214 -456 -208 -335 -56 285 -272 -84 323 -132 21 318 124 286 42 339 -34 18 129 197 -225 9 -173 496 236 280 436 350 -30 -160 -336 45 -36 101 -254 175 -121 320 -292 -193 -344 -169 348 -80 63 11 282 -148 385 -290 -370 0
20 -316 186 -200 -120 -181 -3 -229 24 34 -365 167 409 -345 41 400 -251 -106 73 363 -274 -204 -76 477 -95 -356 -454 -369 36 -134 -147 -339 403 107 -450 317 366 434 257 141 -215 -7 355 -422 -86 -289 -461 -84 101 276 420 -306 213 -421 28 -242 131 -30 -72 261 330 -341 456 455 193 91 156 -445 -66 -254 449 253 465 -295 -373 64 352 206 -429 228 -51 -392 498 -418 448 263 -427 62 -92 -264 -163 361 185 37 -357 415 -467 -270 40 -99 346 273 -38 225 -301 -287 419 -176 -388 278 232 431 88 -35 -413 -162 9 460 -439 -100 -56 -220 -374 -29 -46 0
54 -414 103 129 67 -236 -208 277 44 177 -394 405 -148 -100 24 265 -205 132 -9 96 -444 344 -417 -325 -198 359 446 -430 295 -413 -330 321 -276 355 -58 206 494 -210 351 -25 -170 43 -223 -221 49 385 493 -55 -283 73 5 -64 472 347 -146 85 -162 431 -328 290 -217 -303 175 -485 77 -457 29 375 -164 6 -203 391 281 -117 432 406 318 341 306 -121 -32 -99 112 -234 52 -82 -12 122 -498 225 108 -46 -333 -339 313 263 90 -468 189 -317 118 302 309 492 -499 -1 -183 -215 -482 -137 120 -143 134 -379 -87 48 -427 -105 -392 -363 410 299 212 -250 -21 0
-397 -201 -328 110 -303 84 358 406 -400 -146 375 -275 -178 -342 -355 106 265 432 -345 127 -466 -283 76 408 -290 -337 -391 183 -36 122 31 235 -147 230 371 -284 374 -48 359 42 -410 414 205 -120 -331 93 -458 448 368 179 -222 367 121 -202 -487 64 -168 -60 447 -223 212 315 -495 72 135 304 -92 -207 267 -413 -65 -485 240 -117 -336 348 -377 -133 184 -219 -349 3 -163 177 190 130 141 -399 95 -218 -459 258 119 411 -404 -123 455 107 -269 40 -104 101 -134 472 145 108 -231 -341 -387 -143 335 52 -124 -206 -436 321 25 255 -471 263 488 236 -151 -489 346 0
-382 -68 100 445 -223 -324 383 2 -493 -394 206 -95 431 168 494 289 -432 405 -122 -488 391 -424 -139 -165 265 -304 210 40 151 28 -261 200 -387 162 -166 -111 272 -306 -330 20 -89 242 161 -331 -320 -149 119 -447 246 374 147 302 209 108 215 410 358 442 -65 -274 401 -415 267 -335 -277 -105 -452 -481 373 -205 -97 -468 -192 -418 -84 287 376 81 -74 -343 121 -197 -138 143 -251 484 -316 -305 250 345 -171 353 -9 -188 78 293 344 203 252 174 -297 -49 -145 392 225 160 311 -234 -388 90 76 363 378 127 477 -12 -259 441 -439 237 -14 -44 -336 -204 -15 0
-130 229 44 33 -123 -219 -279 -391 384 -495 422 -291 -323 122 -131 -19 -281 -155 301 -348 209 -288 -103 -297 -267 276 -338 150 226 -133 -204 298 373 380 89 124 299 379 -289 92 462 -313 250 -157 375 485 -55 -42 30 -148 -438 144 -15 266 114 99 85 -135 25 312 -497 343 -319 -472 -7 -158 456 -482 4 -475 -437 152 -254 -174 -230 164 378 -309 431 -424 339 429 -345 -3 231 251 -208 -96 401 239 -111 -449 -262 -253 23 336 451 -192 327 -16 -259 303 346 -76 -329 59 -200 268 178 433 249 -210 -8 26 -280 107 91 218 361 -95 371 -362 -11 363 212 0
-42 -299 -461 -65 215 -283 45 189 -47 -186 -386 401 -134 -500 27 -102 267 -152 268 -286 -367 -75 -454 -372 -300 -373 -251 447 -346 164 179 302 309 -19 176 138 460 -334 -497 -58 -343 321 -106 -313 -342 200 -326 -239 182 230 -403 -157 -360 -402 269 12 258 5 -91 -3 132 -158 398 415 -352 -117 -419 -481 -453 406 248 -219 -120 -15 -478 -147 240 -64 93 31 -46 -472 -6 154 -377 -393 -252 -284 404 26 191 -242 420 -379 149 -129 -383 -98 -36 -443 -222 452 332 446 155 489 -160 128 -109 -192 253 -409 -202 392 56 76 -60 290 74 -68 209 170 81 -39 28 0
401 192 -346 53 -365 -406 -14 -116 -92 238 -204 228 231 -360 -485 -113 -41 -200 -29 333 473 247 166 402 -64 488 -484 83 -405 396 -127 350 237 -45 -6 59 -154 -222 126 419 -114 79 -480 376 -81 -362 386 442 -427 452 -189 -449 -11 -423 -312 438 -115 486 317 16 490 -299 -181 426 258 208 -430 364 -469 -334 40 -205 -450 -201 50 107 -88 -8 -210 25 -131 -275 384 -82 141 57 -308 -256 -202 282 -106 417 -34 395 403 77 -93 -254 -184 466 -15 -104 -142 60 221 103 -75 -291 147 -246 -434 281 -337 197 -10 101 307 -37 -51 269 295 -185 -140 -326 -136 0
88 -345 366 243 129 -354 406 143 312 410 -190 -450 307 146 -210 -374 149 233 323 422 -153 478 -466 79 270 -259 -121 -178 -372 -117 186 433 -352 76 -419 -370 185 250 400 436 108 -1 483 141 340 133 -50 329 -448 289 -8 292 383 -144 -434 -298 9 332 73 320 -470 254 31 74 -200 -464 -262 2 -463 -417 369 -214 -328 341 476 -197 -118 -496 -96 479 333 260 368 -295 -67 462 283 451 -465 -122 39 150 -237 -211 169 238 -335 -499 216 362 110 -179 -423 -425 125 151 -209 173 -226 -170 80 361 159 392 -469 427 -447 380 -308 282 359 404 -271 -138 420 0
-194 22 -129 -373 69 139 -205 -19 23 160 71 -198 241 289 11 192 -346 180 -242 16 -5 -80 -51 -122 189 -321 -73 134 -475 116 427 -453 -367 -223 -371 459 32 261 52 111 286 290 209 -228 -151 -183 -258 -239 -178 415 392 345 470 216 181 2 -152 254 98 -262 298 -49 -310 -400 384 -409 -249 -165 463 -399 -117 341 -140 -339 -473 128 264 -282 -355 141 -167 103 229 -448 -89 -411 306 35 25 215 -497 -237 -6 -377 243 437 -108 -28 -7 -41 -105 277 -433 202 476 449 -435 -235 55 -102 93 -197 316 -83 397 287 -217 112 -238 -271 -17 -387 -187 -133 231 0
75 408 89 -242 428 -490 -124 -325 317 449 172 304 -384 -101 54 394 370 -409 235 361 -102 -199 121 -482 -337 416 247 386 147 -66 78 -229 103 53 -135 127 -79 24 327 -136 414 241 467 -379 -314 8 30 496 494 74 -465 -354 -87 -316 -202 -484 401 373 43 -447 -125 422 -286 217 347 98 -131 152 -335 -445 488 -258 413 -240 -261 55 321 -364 -426 -393 442 -483 -93 348 -49 -319 -174 -309 -201 -191 12 146 375 -151 -252 461 -356 -269 -95 57 -233 -111 -249 -207 -476 -128 -206 -175 112 -396 -144 486 -246 424 432 234 -15 500 -430 168 -177 238 -105 -239 346 0
330 221 305 -324 -210 33 -57 -487 -479 -123 496 -18 121 -268 -276 -441 282 46 -291 -2 -212 317 -220 -494 -161 448 119 -31 440 -80 16 394 -298 -292 -143 488 -34 6 197 -152 -67 472 -311 -413 407 -36 377 293 -160 255 315 -35 -191 -312 -392 -288 51 216 -28 278 423 101 151 190 -339 261 -398 215 309 167 -450 -37 -274 -433 -465 385 343 493 -40 -162 381 -491 -486 337 77 154 214 52 468 43 -410 -206 -203 -165 336 -107 -263 459 -299 -81 -249 338 -368 -429 449 149 -118 -164 -341 -236 100 -229 -300 225 -15 66 358 137 -38 -41 234 -73 70 445 50 0
-121 -116 119 371 69 282 258 260 -52 -308 -395 424 434 429 131 441 -316 -289 -437 -430 -107 202 277 53 -365 93 -329 -145 -125 -475 -17 35 -217 283 -133 -385 142 417 205 185 -219 -407 249 -27 215 294 45 -156 462 -73 406 -458 -203 -187 -98 455 -62 -77 -444 -175 229 411 -18 -320 358 210 -274 -194 -56 -25 -482 79 37 -216 -469 -161 -43 347 134 -492 83 328 -310 -5 -241 487 158 -253 177 -126 -299 307 269 -75 -376 -191 206 38 -391 -144 -474 -252 275 11 237 -496 476 -466 -123 -189 84 85 -220 360 375 120 198 293 -238 -374 255 211 -94 -305 95 0
-493 7 231 -49 -215 -127 -3 17 -395 -363 -139 450 -378 24 -68 -29 229 -37 -400 -36 9 -175 -186 -332 -254 -406 -409 -407 -27 304 -384 42 -172 350 205 -120 138 -18 20 335 81 375 -213 478 -133 -481 465 54 -63 361 -480 -292 40 153 -286 402 273 346 -93 122 -100 -22 107 483 -183 -290 -117 -236 118 -51 342 119 -415 123 418 -452 -238 -169 103 -184 233 -242 -368 136 121 -89 16 77 97 -43 -305 364 -110 372 382 403 -277 453 438 -469 -326 -212 -316 174 -99 199 158 -226 265 -299 -460 -307 -449 -416 -345 -252 219 -456 467 6 -178 -112 499 341 -207 0
-231 -42 353 366 -1 -160 484 -376 -483 -149 -284 175 -470 450 -182 441 125 438 -317 380 -394 -128 -278 -230 -432 464 -150 -72 195 -331 241 26 39 100 324 302 -462 89 323 -300 -194 86 404 105 193 -447 305 -457 -288 -222 461 119 -406 -59 -132 82 307 151 136 486 131 276 -349 -319 148 -337 -400 386 87 309 62 176 -96 -186 392 -218 65 263 -382 286 283 445 4 -329 -94 -446 -137 152 -35 -421 458 -255 253 493 257 426 -279 442 -130 -451 40 -225 -55 118 -474 200 -147 -139 -70 -463 256 -333 -460 -156 120 -250 423 -80 -379 -113 98 155 17 377 -363 0
42 122 308 -9 -239 -28 91 -397 207 -404 -46 61 -240 199 -366 468 -246 -195 485 113 439 101 -337 -156 -236 -147 126 -331 218 -179 394 212 316 90 78 184 224 375 360 -250 173 82 -370 -491 490 -1 -389 -43 -55 414 -114 279 -230 481 60 -160 -157 164 -226 -168 367 -276 201 446 229 457 25 254 238 -494 166 324 -301 338 448 437 -477 245 435 -158 97 211 -119 -422 -204 -102 -45 -399 -138 231 125 -330 -169 185 -155 149 -225 94 249 402 -58 484 318 -290 -181 228 -372 -130 -178 430 123 480 -284 120 -413 227 -87 357 182 235 -174 -459 73 -33 486 0
-401 177 10 -119 373 19 -101 185 -112 455 331 -46 136 393 -409 -481 334 -289 263 -459 -351 16 7 -492 137 328 -97 325 38 -229 147 -330 -385 -376 -454 -271 -260 -75 157 -465 -498 479 188 298 84 67 174 83 -352 -74 -397 -435 -246 -332 27 14 30 -267 -415 -294 212 428 256 254 372 -414 450 26 400 -222 -92 -131 243 61 -495 200 -186 -199 396 -500 392 -223 247 -291 -374 388 303 66 -437 -86 114 -82 117 24 494 -210 -320 93 134 -11 367 -33 -236 453 -384 -49 -17 159 57 413 145 -344 275 317 227 472 432 -308 485 -164 -487 234 -179 -250 357 0
-489 -440 -176 -244 10 148 -54 -135 -336 -496 -447 -125 -393 103 274 118 -19 -242 -407 328 23 206 325 252 228 -237 -339 -373 300 243 -439 13 -468 -311 -89 -197 67 -11 -484 259 208 -158 -109 -101 321 -33 494 -111 268 -464 141 -283 35 333 -498 53 170 -361 9 -215 -60 -435 380 -171 355 174 -44 -315 463 -98 -358 -6 5 -221 119 -385 -250 345 281 -190 347 304 -46 226 138 21 -430 381 -49 -71 51 -236 257 -467 294 62 -491 1 -454 402 108 52 -279 305 -14 2 -403 36 420 -37 370 92 499 -286 -24 153 -68 -102 -91 156 379 -471 367 351 280 0
-375 -91 267 96 -444 -149 167 -380 110 170 314 74 144 -496 381 -274 33 -453 296 -463 261 60 3 -217 146 227 -262 302 186 50 218 -82 -248 391 356 259 -157 362 189 165 -158 401 -290 -244 414 432 495 -332 236 -104 39 -238 -48 -498 -109 -232 -277 192 208 -265 437 -256 -78 352 384 -430 10 -180 390 -247 489 387 -337 -280 171 -156 -382 2 -113 -100 364 205 438 306 58 241 92 -221 -117 -467 -347 452 312 357 -179 -141 457 187 308 182 345 -176 -341 -340 372 -108 -70 136 -307 -67 -459 229 310 -122 464 235 12 -449 293 -245 460 402 -289 -336 56 0
470 351 -374 232 -41 -262 -129 -312 136 293 103 -29 487 463 299 -280 -377 -241 122 -83 376 270 65 -185 172 -388 415 177 -165 -134 264 -314 450 461 326 -329 -88 -144 -254 -93 -428 422 -287 -318 417 -249 405 279 -76 -339 423 -384 335 -433 -492 -61 8 10 -315 -300 313 -453 -156 390 18 -426 -31 -111 -6 466 -27 169 -14 -189 -430 -356 -17 379 360 -469 -196 -130 -496 -330 -50 317 419 281 -216 105 -353 -212 -5 -80 -147 334 389 -86 -429 395 -174 361 -228 -350 343 -75 -135 -337 20 92 -57 -62 -465 -382 -425 -365 -476 -497 -23 -171 257 -327 -213 -271 -242 0
-355 249 -410 232 -183 -418 -412 276 371 328 253 187 155 238 106 172 -370 35 285 -78 458 -55 -96 -395 421 52 493 221 64 358 -173 468 324 144 478 434 268 391 58 93 442 -251 62 -375 -486 264 -444 333 461 98 -332 -29 446 -71 236 -188 225 488 -365 -220 111 290 469 -242 311 -305 254 252 313 -1 51 316 134 -89 472 -379 -205 103 -465 261 -281 -67 -74 6 317 302 -61 -141 -87 41 -46 32 331 409 214 -57 -361 -70 124 -405 158 -402 94 279 75 396 197 -414 -415 389 -297 85 -321 -99 296 -126 -95 -47 -294 -399 208 -387 -212 -342 -403 0
-222 -241 -103 56 -98 -133 196 240 474 100 -39 -446 345 398 339 -57 253 171 -280 118 -495 426 374 478 -494 -489 214 -163 -151 191 344 -329 -65 244 -95 209 -303 182 -91 -60 145 324 143 -401 -220 497 450 498 -225 -7 -456 -390 347 -395 129 38 229 380 379 -9 -477 263 31 178 -211 -458 -5 413 -64 -429 -376 -423 -147 -227 195 381 19 -205 -179 268 -126 -245 -251 -8 406 362 -448 -78 33 428 327 236 293 492 -135 441 26 -10 -81 -23 487 -323 -443 -127 -40 -417 353 -333 -197 121 53 215 452 -307 422 320 -150 257 -455 -235 449 4 284 2 393 0
-257 132 -395 57 149 -125 -343 270 -161 -174 305 119 -392 -389 326 -340 266 -275 76 101 286 -277 184 259 -486 450 29 158 294 96 216 276 454 280 -358 470 351 -191 -331 -69 -397 180 -437 -362 -13 -440 -418 404 223 32 428 68 197 105 183 97 -255 -246 131 186 -70 -31 -409 165 -401 176 72 -9 -178 -489 48 302 65 493 -344 56 107 -485 120 -134 -282 370 492 312 491 -138 -154 175 -18 -465 -309 374 -25 91 -333 -148 203 490 -60 171 -20 237 23 429 -243 -6 37 387 89 380 -142 126 -49 -244 -218 -82 396 -281 -319 -341 416 -247 79 328 66 0
9 -219 -58 -44 -18 -421 413 263 -415 404 -333 214 411 464 428 -176 376 468 -160 -308 -236 -120 151 144 -254 129 -51 106 66 -146 -231 318 -433 -23 -228 257 -134 -261 457 -500 84 87 38 117 -135 16 -272 352 75 463 290 121 -248 262 205 473 -118 -74 -69 388 222 -309 402 202 -128 -331 422 -116 -243 54 92 -335 489 -480 332 10 -375 -451 196 -371 -312 200 -284 -472 488 86 361 -373 -6 337 -316 57 -247 -432 279 494 412 -358 224 426 274 288 -52 267 168 -245 -48 29 -392 -157 458 131 -397 -486 64 -3 355 -190 369 -201 -235 182 -27 -91 427 0
-218 237 -467 50 91 409 135 431 -192 -412 -28 -454 -282 439 212 264 94 -423 316 360 104 145 -19 345 -220 -179 349 -150 -433 442 -61 -462 182 -100 -163 -498 -441 -54 -295 -242 -29 482 -107 -105 420 -230 111 -280 211 -73 -102 52 -460 -58 -16 -304 98 -205 21 -393 -432 186 500 46 187 -253 248 -365 389 2 -434 -30 -121 353 -17 -308 -236 -469 158 -26 -68 471 75 -243 499 470 -226 496 -124 430 -115 -330 -468 -117 181 -235 -461 -241 -20 15 309 154 443 51 334 -216 256 -165 -42 -159 351 -387 493 249 311 413 103 -324 -11 128 396 -411 197 391 445 0
405 210 258 476 313 -163 -371 -196 -286 195 -315 380 -307 45 214 -239 107 486 -90 211 -228 -457 -471 -360 -280 119 288 208 5 -39 62 310 -14 304 51 65 -282 234 412 252 -383 37 -467 137 470 225 270 -4 390 249 -342 359 82 95 -422 -460 -132 -464 -201 79 127 209 349 -343 357 -204 294 -157 482 -264 173 269 -450 -266 -396 -499 144 -354 -337 -188 117 490 426 385 -353 -443 145 158 345 -224 18 -491 150 -317 -128 500 -131 -194 129 255 -40 47 -49 -202 -278 154 -333 -267 -16 186 53 -232 320 348 103 -442 -259 -401 397 -364 -136 -182 -308 -6 408 0
-194 -8 -29 -442 85 -112 404 -42 -291 493 -489 274 -238 -246 -336 82 -377 453 -24 -435 67 -70 -98 -306 -391 373 -140 -116 -487 198 96 -240 -233 329 311 -387 203 62 208 470 -164 -211 416 273 -147 342 55 11 -317 -235 143 109 282 444 -289 -214 -179 180 188 86 361 136 12 395 -9 -72 -458 -374 389 -257 191 276 446 -217 -148 462 -479 -301 -35 53 -199 -43 169 -420 -370 -61 -243 -229 183 -195 -367 428 -166 -450 156 -434 260 -357 -495 396 465 322 162 -475 -330 -23 212 -123 -27 269 155 107 380 461 -454 -314 316 482 157 -305 236 -262 -457 149 69 0
15 401 160 -87 83 78 449 61 305 -345 -148 -426 97 -402 -175 -463 395 250 -303 159 41 -452 -386 151 -413 -399 422 344 -150 157 446 -416 -447 81 484 104 372 126 211 -263 -495 -20 5 -105 266 486 -376 -329 342 -225 -445 -297 -115 63 339 -379 365 420 -370 438 385 450 -118 233 -477 -221 -37 -397 210 -434 -378 138 182 30 10 -403 473 -223 -228 -237 -414 -497 -332 -187 -424 -35 174 -467 38 -166 113 -256 -483 153 220 235 -360 155 -7 -90 -109 -123 -482 -52 494 -214 -459 -139 324 -26 -44 368 247 192 -335 -149 198 -393 441 72 271 -206 -429 -51 -432 0
-232 169 20 -137 431 65 266 -10 187 294 165 131 -223 47 -235 182 274 108 -302 -158 222 84 -362 208 -327 -179 128 247 -439 175 42 -166 -409 438 -328 94 -434 52 425 5 464 -256 87 485 308 374 190 160 -61 290 -268 -172 -263 -92 -445 363 -227 359 -67 309 -386 -60 218 -38 -188 -209 -430 217 -286 89 -59 -21 -95 122 213 -96 480 -196 -313 -301 140 391 -344 -370 -173 275 -337 334 -195 -479 -346 -318 -118 329 -500 -272 234 221 -474 415 339 326 341 -457 161 -304 143 134 -14 -350 -239 348 -205 321 467 -468 316 34 216 -135 17 -271 -211 -377 24 0
421 258 -422 -283 329 -415 -165 -231 116 -375 204 152 492 -240 -377 -383 132 316 -92 123 342 -299 -73 -471 49 -77 431 402 96 -250 -155 7 439 -459 -181 -388 -286 -481 3 168 -20 285 -420 -345 -251 -361 -22 -392 -393 238 -434 160 -46 -295 370 148 -91 26 -149 -51 -427 -457 -192 -485 318 -249 -86 -261 -281 -135 310 56 200 463 -8 382 -362 464 -424 436 218 83 102 298 -497 120 -104 85 -50 -126 72 -139 -179 340 498 -130 113 -193 -31 -172 -359 -443 190 -379 -230 224 -90 -303 -395 -312 -118 -325 357 -89 259 138 477 -47 167 246 -446 350 438 335 324 0
-136 -417 407 -441 -145 20 339 -125 -277 440 341 402 113 -372 -100 -425 -163 -198 -192 241 -10 -353 217 -314 481 301 435 137 433 367 81 463 -330 -351 -153 -110 -271 -104 -320 -365 381 43 -72 -214 480 -6 -199 112 462 -234 -140 -128 293 5 270 -206 52 -133 87 287 268 -445 203 68 188 -486 -77 216 -178 420 139 454 207 44 -335 -472 124 25 -60 127 -397 361 161 -179 -303 35 -21 -64 -194 -336 -413 -83 -258 -273 -49 326 266 15 -453 89 -48 23 -406 -272 345 132 -63 342 -276 189 -414 309 377 -327 -34 -411 -235 305 254 362 -84 352 405 -103 -19 0
-389 -271 -415 29 414 458 -495 75 137 -379 -210 228 7 421 -427 42 202 -185 457 103 -344 397 380 425 493 -364 449 309 -145 -1 -442 481 71 124 -267 -297 -348 -280 -356 247 265 -59 -168 -298 -225 -253 -485 -132 -80 -216 244 470 73 218 -487 474 170 -181 203 127 115 410 419 -129 -157 -292 169 -373 -38 -84 360 222 221 -408 -197 -441 426 147 -92 -57 208 78 337 -95 -363 -229 287 435 294 -11 97 -20 -394 -383 159 -237 17 396 5 296 334 -279 -12 306 195 4 257 -224 230 -220 -189 -452 187 -424 121 368 -463 -193 -366 272 112 285 314 -40 179 0
-319 17 68 -348 367 -234 389 1 -333 -222 -8 96 -460 118 275 -268 322 74 -9 -206 219 -482 371 -436 -123 200 29 153 285 -316 415 -52 -324 434 325 -409 457 -327 320 165 254 108 -212 361 -3 -168 250 -432 63 27 213 -160 203 137 337 347 449 -452 -349 64 -169 301 441 -85 -210 207 149 33 467 262 265 -375 -270 148 -445 -383 454 4 125 491 -192 76 -232 -115 -381 -204 -84 -119 -465 -428 -221 -116 -227 386 -308 2 -22 280 100 446 397 -408 378 56 456 128 -199 37 490 77 297 257 -57 -484 -420 418 -147 233 61 208 -239 -321 35 -19 -479 0
-190 -332 24 -119 174 20 -450 -466 -153 -279 -451 83 349 108 -131 87 -367 261 -80 135 -447 232 489 -34 292 40 308 362 -387 -282 154 -209 -5 -77 150 -72 212 270 214 -251 -12 -421 -242 -92 -420 -17 -476 -151 368 460 -15 -14 249 -133 -443 339 138 -334 337 -335 -375 324 378 252 -417 269 412 -247 -2 149 -66 61 495 -132 163 -42 356 424 -348 -354 488 -155 70 -344 -284 259 -63 350 -423 -69 245 319 -428 48 290 -480 -180 297 218 351 -39 305 195 38 85 298 35 -112 -118 482 -361 397 358 -52 -456 389 79 -323 500 -75 -327 -104 453 -192 -336 0
237 110 175 37 13 -268 -300 -364 406 291 -63 -139 86 254 497 295 59 -121 -381 -328 60 -130 -481 403 168 10 -155 115 167 -470 257 -67 -216 -38 -189 100 321 467 191 153 -249 212 311 -334 471 -272 277 164 -292 415 411 -223 -342 472 -75 -269 -475 -241 -494 425 -465 420 71 395 367 -77 137 -123 113 151 -72 442 -53 438 116 -107 407 -440 -262 213 -359 128 43 173 -463 -33 -484 -97 384 -62 -312 -446 -225 303 -192 380 341 320 -32 231 31 138 -84 148 73 -333 -81 353 29 456 -459 314 -236 -108 252 -222 40 214 -330 453 487 -388 30 -224 376 0
-259 107 362 45 456 -457 350 475 -347 -270 297 470 -342 -138 34 -266 -395 84 -494 9 -400 -427 320 -367 390 384 -116 -88 -431 -38 458 -440 -253 185 338 -262 385 -344 389 -106 178 465 -484 -426 90 -341 35 -420 -405 -407 -78 481 366 356 217 -301 -157 -279 -186 152 127 -411 122 109 137 -125 226 -18 300 -235 -478 -73 477 202 392 111 99 451 337 -193 -75 -469 -134 -334 17 261 154 189 -429 -285 349 -14 -165 33 492 -412 -206 -13 -91 -393 -55 -311 -105 -4 332 -284 339 -397 -74 126 -416 399 432 95 230 208 -474 -453 444 -461 258 41 -281 52 160 0
283 -105 120 -452 -448 348 -230 459 -118 -450 -48 -466 16 -153 30 -305 486 181 56 -184 373 -399 -15 -440 39 -317 -217 104 397 -223 -266 -388 -132 -265 261 -497 287 202 -164 242 81 148 -359 453 -340 -10 -282 -215 -475 -442 -198 252 385 -139 -208 386 75 107 94 414 356 -124 -49 121 407 271 151 460 439 -167 -204 325 311 103 390 -495 -258 428 71 -338 27 22 -141 -166 477 341 157 -28 -410 -156 424 312 446 354 -182 498 473 337 -263 14 -176 -470 -286 99 -303 129 114 40 248 34 -485 -26 -314 85 46 -93 -239 -175 106 362 -393 478 134 50 437 0
-375 482 8 401 -62 -381 -100 -484 -454 316 461 -220 -323 101 226 127 -268 301 73 -69 -245 -156 -64 285 -432 -334 -390 -340 452 -310 113 35 132 -297 -430 -389 86 -423 304 -21 70 -363 33 -45 -451 -380 -157 -465 -405 -271 -67 10 348 77 -224 57 -499 -324 -199 -139 -198 128 -230 -486 -256 -379 79 124 -91 48 -32 -76 -377 -135 -407 -404 -414 -130 84 187 372 204 -136 265 -34 -215 -154 488 4 -382 -287 429 478 -237 -56 225 134 203 374 90 -38 -55 -170 216 78 359 -353 -273 -302 178 -479 -66 -487 -71 350 2 276 437 -443 -17 -307 72 -330 125 -80 0
196 -401 -67 235 -128 -393 -107 358 -69 -89 -498 -186 236 286 478 465 103 92 194 457 -458 382 -340 -329 166 -295 -481 -61 80 303 -344 76 499 -381 101 -214 378 -11 -431 -402 -111 124 455 -411 -373 63 436 -197 256 -357 -127 350 -229 42 260 -72 -185 -145 -292 -492 172 -488 371 451 15 219 -434 483 39 313 -320 461 -192 -289 309 191 213 245 -474 422 263 252 -470 -441 112 21 487 -49 132 108 -167 -232 -148 84 17 394 420 -337 -369 334 98 223 -113 -265 -109 -315 467 121 296 291 242 -314 -386 -424 -322 -327 -271 -248 283 -387 57 91 -206 450 122 0
-51 379 147 133 -314 -124 450 -445 -301 -52 -479 202 23 -258 -341 -34 -223 -104 190 -433 439 79 -415 -398 449 19 -102 142 169 27 -103 -489 -134 -498 429 -12 152 214 -347 15 -205 -216 -112 268 -167 -210 -77 270 -16 -178 -307 499 -305 329 -255 -144 -487 -355 -62 -313 -249 -300 -120 411 -90 367 7 -84 -493 88 -444 -394 284 -405 -212 -26 402 -105 251 38 375 176 -1 6 -259 422 -29 443 -465 413 -467 114 396 -377 299 -252 41 -480 138 399 -175 410 -182 154 -484 221 17 256 -366 -325 248 -495 -428 286 478 -50 -35 340 388 -228 386 -440 -46 -454 349 0
-326 3 -467 111 381 264 -176 -418 -17 284 165 -43 63 -389 -70 194 45 447 308 77 285 -386 -334 -486 360 69 -310 163 -6 224 375 -271 -428 -414 -171 11 371 25 469 273 337 174 258 -299 52 370 100 149 107 -392 82 -450 -319 -485 463 -437 333 -380 -230 -320 192 -233 338 34 268 -286 345 -426 377 -288 -490 -436 206 -361 -483 -195 378 327 73 22 78 -168 -362 292 160 -417 423 457 -42 421 101 -191 420 51 110 -132 54 -145 -293 -321 -328 221 -364 -189 -85 -153 -489 -473 -19 -282 443 -329 -57 -169 396 -211 59 86 58 -37 439 39 -5 -251 -430 0
-5 317 -209 -381 -17 110 101 -268 -172 -323 -462 -471 430 -223 -48 -86 96 -463 356 153 -204 -156 -38 -25 -313 145 -486 94 -179 276 30 -433 -393 264 -219 -349 143 197 448 -149 176 -51 191 -253 -238 -243 299 67 214 -470 11 -52 -78 316 -340 -328 292 295 -37 -196 45 -248 -341 18 -175 -358 -422 26 -167 -485 -320 272 65 375 -396 97 439 -98 123 -4 484 409 -75 -158 -43 363 482 -354 186 -398 290 -289 134 -226 418 -404 203 -199 -443 285 128 -129 308 297 -336 -173 233 -254 472 477 251 -395 152 288 445 113 -397 111 222 81 -224 -235 74 293 -245 0
90 200 -343 -462 399 76 -270 101 -409 -446 229 -17 -263 369 337 317 -370 116 -171 9 -243 -114 -432 -228 -236 -351 6 -282 -98 222 407 -496 30 -131 216 224 24 -213 127 500 -435 -10 218 -384 -373 49 -474 -265 -280 -497 -266 372 219 147 -484 -25 22 -178 100 74 221 498 -29 461 -133 277 225 -192 -35 -193 -279 -320 -99 438 -250 -387 441 -132 -368 -196 191 -188 482 -327 318 -128 68 -125 -13 126 167 175 -303 -158 -355 -115 -166 415 324 421 2 -406 -455 405 -182 -264 442 359 109 392 209 -376 410 398 -299 -300 123 31 -162 365 -275 106 86 103 295 0
-267 -216 352 -466 -126 -42 -32 -262 -328 -229 478 339 403 383 210 -344 -401 -357 189 -371 182 177 305 318 389 -89 101 79 -380 153 -362 -117 -81 363 -245 -427 87 -200 128 34 461 104 397 288 -442 23 52 -218 69 -187 246 -241 -53 434 -213 173 -391 -334 -264 -280 106 265 -91 -480 329 -467 116 169 -37 -170 146 -220 235 -370 282 348 -416 -420 -276 -408 -319 324 269 367 184 313 -353 -237 77 -447 -382 -331 -443 -149 18 468 -84 46 -346 -207 36 -372 -410 -309 -148 498 -300 -294 25 -256 259 340 145 147 -47 -50 326 132 -38 312 -222 336 238 -176 496 0
316 -468 64 475 -299 -376 456 -59 190 350 -292 326 465 56 -313 -66 455 -201 -415 138 102 -69 -365 17 346 419 -159 -165 238 221 -248 6 -495 -103 -216 -261 287 429 46 -412 180 -344 304 348 -243 53 -232 -373 -452 441 -362 -266 -367 36 -225 -170 291 -146 347 -439 -140 210 477 -251 359 -377 -493 305 73 -332 -424 171 -257 -453 264 -235 457 -130 19 213 -426 -42 -372 -23 285 -497 208 49 166 -126 -44 -265 40 440 -117 306 33 233 -387 246 487 181 254 -303 -95 -399 411 -485 336 -310 -227 314 45 -110 82 68 240 -435 151 315 -311 -60 157 63 -184 0
-327 -449 38 419 -338 -424 254 168 -487 480 -464 29 190 -337 46 -272 -318 -289 -59 -80 -172 -331 -179 239 157 -221 43 60 -365 292 170 173 -177 -63 222 -408 482 -376 -418 237 -279 -3 363 -17 274 -88 249 413 -329 -219 361 117 -143 -180 -311 484 28 -175 68 485 -321 -27 -89 -240 -132 -185 -121 -437 -227 -322 191 31 -499 -202 -55 159 -213 187 -109 358 285 24 33 441 -257 -99 366 349 -306 -10 223 326 -471 -94 -352 -483 -243 244 235 353 260 -395 -220 -258 51 -20 -209 -97 -432 151 -182 16 -2 9 457 135 -64 136 150 355 302 294 -212 447 85 0
225 284 4 14 219 -270 50 -473 271 363 291 -369 -29 -358 -315 -451 128 -251 220 248 -439 -125 -269 -233 -298 -133 -194 -457 173 -217 -56 323 -444 497 500 -184 467 445 -224 30 275 -478 -247 470 433 447 108 -131 -332 353 -115 -249 -490 -236 240 -407 -290 371 -339 -409 -370 182 -356 167 -435 -215 310 -322 385 162 -299 486 472 -23 -410 80 -243 -19 -329 201 231 -118 250 -384 -331 -319 -479 246 158 340 -343 141 54 -96 -262 -348 268 88 256 -226 -335 -326 24 436 459 403 327 150 -186 316 136 -367 273 350 -418 42 -15 318 395 -401 -195 283 -454 -223 352 0
147 61 -76 172 238 233 410 -117 -229 -375 -305 440 36 -332 -30 495 -297 -137 -237 265 -9 116 430 -418 334 -356 89 -466 -367 354 149 -494 254 360 -101 -280 484 -43 -48 -167 -160 15 -452 372 -187 8 211 -316 451 -130 217 -310 -155 322 -345 -143 -94 459 -222 244 -220 -131 26 -158 -102 -124 201 412 -283 289 -70 388 -347 262 -349 485 215 -239 -37 -277 -259 -192 -376 175 -498 -98 224 -422 63 -169 -373 -99 292 -315 109 168 -27 -208 -152 -400 -32 -499 -427 -255 429 -402 20 -374 -230 -62 193 314 221 -397 407 -333 -157 115 -319 -355 -445 359 -21 -210 246 0
168 -15 -178 130 -165 -239 457 -135 -36 -336 142 184 124 21 224 -70 -146 -377 -468 -208 198 -33 -10 138 -293 -26 -499 221 280 223 447 97 492 -482 92 -41 -185 -31 -195 -64 116 422 199 90 -342 -398 -277 500 -161 112 73 -228 238 318 -486 217 -219 -332 87 -122 115 -193 152 89 246 24 348 132 -250 -249 -300 382 173 -343 154 339 -242 13 454 -460 -490 388 -72 363 461 -344 -230 433 -361 -402 275 18 113 236 117 338 -448 -218 222 -96 -311 -483 -305 -99 -337 -86 471 310 -273 418 98 456 -189 -408 -494 432 -234 -467 431 -109 358 473 162 -196 413 0
351 -206 120 45 282 -432 163 277 313 -392 213 51 264 -494 488 5 -315 -80 146 487 181 34 -85 225 -452 185 19 -17 486 426 270 75 254 333 -216 471 -245 -218 -65 -188 -496 -375 -44 -138 -438 -348 271 224 -184 -42 -395 -155 -200 499 -190 317 -243 -451 -371 320 -182 347 236 367 -24 -285 -78 275 467 -91 307 262 4 39 -454 473 -238 -268 -129 246 -276 429 209 379 183 373 -378 -301 -189 430 376 -402 328 -463 -103 309 466 -482 -170 -260 81 343 -137 377 -398 167 -249 -1 177 241 -449 -382 445 239 294 -69 -330 -21 8 -447 335 -174 3 414 461 0
321 -270 -184 -409 179 -466 290 -419 -243 -363 302 53 134 -312 292 -233 112 -351 495 313 449 -411 -95 -85 61 333 72 202 -78 -485 368 445 -88 -132 356 352 -155 27 154 -244 417 263 -94 14 -10 440 -275 -268 157 -75 9 361 -220 83 -153 -407 -374 -113 400 38 180 -229 259 -289 272 -314 -158 385 40 354 237 -408 -248 -97 -478 405 -299 -39 457 185 -118 386 107 -396 -315 -90 234 -166 281 338 -288 254 -432 -45 -481 320 319 -135 70 326 -463 -170 -364 81 -395 -464 -295 -334 194 323 -346 -362 415 -269 -175 308 -307 15 483 -191 192 -207 -428 298 188 0
-300 -158 432 -120 -209 -343 230 -367 -466 -211 -255 -397 319 291 464 -232 244 -150 -310 -331 333 462 66 -157 -366 -395 -298 -15 -100 46 214 -108 352 -183 470 248 235 -488 -227 311 -341 -446 -320 144 -403 123 330 382 463 -251 -96 -486 472 296 -201 240 -121 -372 204 364 -142 495 455 -77 -106 436 -237 -290 -3 40 -484 -184 407 338 62 200 210 -265 415 12 489 -72 -19 277 392 500 -97 -219 389 -402 89 339 102 387 -137 335 258 381 305 247 -347 295 278 449 361 -384 -267 -281 -75 -28 -401 -187 220 -482 -293 -282 -156 -481 -226 -321 457 -145 -2 -286 -408 0
449 -339 -459 96 492 -121 62 -254 -198 -132 309 -284 -244 -431 -245 72 -336 393 -382 -83 227 -231 -149 217 9 436 6 140 -178 -197 -307 463 199 -394 147 -146 -296 -314 363 442 -164 -176 -257 -40 354 113 47 169 469 -371 341 -300 210 228 -116 221 -392 -167 230 383 66 462 417 396 -409 -46 -139 188 -365 -239 456 -364 387 -395 31 -133 489 -168 -20 402 -345 -195 253 348 -37 465 78 186 59 370 -173 233 328 416 -73 -290 172 -63 85 -306 98 -324 -259 212 -67 8 -225 -153 134 -403 -258 123 -5 495 76 -299 281 -251 -125 -264 -386 277 -122 118 -148 0
-390 -158 -309 -395 -470 244 -262 273 2 -222 360 445 -263 -251 -25 -257 64 69 -48 101 181 7 464 -415 -236 -146 340 53 -284 -92 -429 -382 361 -125 -313 -93 -46 124 -412 304 -449 431 443 -148 -143 350 43 73 -291 -246 -201 398 -302 218 283 458 44 180 500 -394 424 161 193 293 -300 250 -478 -231 -357 380 -471 -333 -183 -241 -317 -468 -491 -30 68 189 409 281 444 132 3 -199 165 -122 -433 -307 310 171 -209 -66 -405 -392 -396 -160 -166 466 197 -363 493 -206 -70 9 -88 290 -61 -240 -492 -346 -408 455 130 -301 131 107 -224 28 -39 182 198 -272 430 0
-56 -323 75 90 79 -89 286 -362 263 134 -72 393 -239 266 411 441 425 240 116 52 -281 -359 159 99 -178 32 -484 -358 -213 -403 -23 247 -74 331 -82 -135 -272 -106 -160 416 440 216 206 310 -277 431 469 224 197 53 -235 -319 459 274 249 409 -464 149 -384 -275 415 162 -333 -66 -88 -467 317 390 433 -42 444 -327 7 -465 100 345 208 -202 474 -50 470 366 346 500 -418 -128 -453 91 497 -238 -397 141 -63 102 257 -150 326 -22 485 64 -288 260 -95 282 276 284 73 20 -210 -123 167 -348 187 220 408 245 308 -108 382 113 -218 270 389 196 155 0
-123 -398 113 68 -230 289 -378 147 140 -466 -283 -481 58 350 499 389 -100 -492 -404 -406 -465 67 146 -491 -148 -394 -358 150 55 431 287 -327 321 -7 -192 -351 -329 -257 20 -57 -40 181 29 -185 315 427 50 -54 -145 -178 -443 -166 64 -228 -316 -449 -353 -9 -352 328 -360 359 439 129 -70 357 252 -500 -247 369 426 -12 93 233 226 -371 385 486 141 -136 393 332 125 117 -46 -470 -275 63 195 341 208 -386 25 -73 372 -405 313 37 -402 354 213 -432 -249 -3 348 15 261 -13 -248 155 -457 453 75 5 370 -26 -180 127 -325 -395 -304 32 -241 -408 411 0
77 -109 -287 -474 -350 -466 155 -407 -210 373 -45 -322 -27 -427 -99 323 -202 -273 345 497 112 206 -361 114 335 -467 -220 -294 -131 476 435 35 -176 89 80 -216 6 84 298 175 379 36 -310 -355 463 445 270 -9 -164 -495 226 199 267 428 -204 64 58 24 352 -207 -383 -30 -116 -191 184 212 125 -196 111 -452 451 68 -91 -135 44 33 74 -326 380 252 -172 189 -3 43 72 -364 200 391 489 -167 324 -108 -86 -132 -230 -100 -39 341 238 -469 145 460 -121 -264 446 -18 54 -154 411 92 -158 424 -126 -465 -330 -432 -4 101 -336 194 150 -374 -48 59 455 0
-214 340 -31 -364 407 -81 221 -177 -491 -461 -56 64 -370 -213 38 -109 -276 84 413 -1 96 271 9 -291 414 289 -463 -275 -465 -53 -357 -155 -234 -16 119 -137 372 441 132 445 493 -312 310 67 381 -305 -329 283 -32 489 -72 80 487 24 452 380 107 -472 290 429 209 -229 -442 194 264 -104 375 -280 187 -348 -173 402 245 95 -486 266 -337 179 303 -391 83 180 -430 27 28 33 -242 -254 -262 484 -428 92 -307 -273 -231 142 -21 49 -449 36 -467 454 -175 476 426 -423 -212 195 71 -140 -343 98 -150 330 -278 -62 -367 75 105 358 40 474 -475 -460 -319 0
-144 43 424 -167 140 388 -312 -487 -231 -354 -148 133 170 -18 95 -340 350 -112 449 413 327 284 162 199 248 157 470 317 27 -130 165 -2 105 -174 -56 -246 -122 161 -255 328 -257 65 223 141 499 -492 206 -37 -205 472 289 500 360 139 423 -214 -467 -315 57 -474 477 -94 461 391 -446 466 137 -146 -403 288 -323 -20 285 99 -336 -24 389 -308 -459 251 -218 71 -187 -380 -25 45 -182 -42 59 116 190 -385 -200 47 322 -436 118 183 444 -55 -498 -78 -228 -150 -309 31 -60 -421 -442 -264 -195 260 -481 -292 -397 303 176 -427 -36 258 -411 335 -451 273 41 0
45 384 -96 333 9 306 457 398 -366 -54 260 288 76 -248 226 479 -208 -450 -21 -185 165 -183 -401 -278 419 -272 313 225 100 294 -345 -308 415 498 48 61 -172 -59 -199 -231 -255 -101 -314 -83 -38 -149 -344 257 303 -186 29 -437 -259 -417 140 -393 155 -289 -180 323 -193 271 201 242 365 -163 -56 245 -126 216 -494 75 -354 433 -258 280 497 -277 -84 -23 -65 -430 -244 -386 -400 334 -32 -297 -447 394 -142 105 -316 -469 41 34 304 -472 220 440 -146 362 -251 -499 454 15 109 51 -383 428 -156 68 -14 -355 -42 -399 -327 -110 -168 338 -353 52 452 240 343 0
126 -48 193 92 -175 -447 42 24 -464 -426 405 40 98 159 -306 470 232 103 -162 422 -311 482 -70 282 -4 436 -433 -41 317 431 249 -473 -445 -129 -208 343 440 34 -128 418 419 -290 7 -465 99 -496 -221 -390 274 -256 -100 55 122 -412 -338 188 161 -118 167 31 -278 305 52 342 399 -25 -148 500 -392 95 108 -97 192 -336 441 358 -203 -347 -429 -116 -363 14 488 145 -150 -80 -400 328 146 421 499 -186 -216 -182 236 408 -172 -88 451 -299 -483 325 -452 -241 -344 -316 -471 -402 -87 50 -312 269 -387 360 401 240 -178 -12 365 361 -144 -461 -212 -121 357 0
-243 114 152 200 148 167 -281 472 364 247 365 -37 -58 27 301 -202 72 178 -92 -161 -401 464 489 341 -433 237 -421 -142 71 436 120 -210 -388 121 326 -454 -473 235 435 211 -108 -165 277 396 222 -11 -56 384 292 -491 -13 -135 291 -151 376 41 -488 28 314 246 419 172 -329 250 300 186 304 -40 224 377 -389 -4 -209 -404 -381 283 255 459 -412 -312 253 -26 -432 153 393 -181 -343 -68 339 124 261 -112 -106 -45 497 -485 -190 356 91 80 451 -258 -427 132 238 -288 -490 -198 -480 -206 -416 308 236 493 476 25 -477 284 -422 -20 306 196 379 -299 249 0
-240 178 -446 214 121 -177 476 332 497 265 -146 147 12 -256 75 244 327 -401 232 455 -83 81 -289 -359 -248 -419 -62 -297 42 492 321 -493 485 -153 -35 -103 124 -191 -96 155 459 -78 38 -233 73 -437 -421 -186 -72 -213 411 258 -172 350 23 294 2 101 127 -19 309 -382 149 -106 -197 22 134 -173 -404 479 288 -434 -193 11 -391 -436 56 -245 260 196 -430 259 -91 -255 164 206 -435 393 -54 200 -160 -231 -194 -88 385 263 -264 472 -366 -250 -109 -64 375 -454 272 -293 262 310 120 305 -290 -238 -333 -494 314 -107 130 52 431 25 116 227 31 -367 -420 0
-186 184 -159 225 -211 -160 -386 242 -498 -473 -372 89 -25 303 -76 385 212 250 -239 -454 -108 -467 -217 -484 -161 -292 -206 -365 500 48 -107 417 82 -293 -129 -114 -485 404 23 346 203 -230 -94 389 466 -258 205 -169 -307 321 124 266 148 450 -140 477 -426 251 -168 9 -8 480 464 283 134 -469 351 499 37 438 376 328 444 -111 312 197 12 83 -235 453 458 194 -79 336 374 -475 492 418 14 302 -329 383 -241 47 3 175 171 -359 -471 -305 326 295 -81 -177 325 127 296 330 223 158 53 190 208 -294 434 -213 -58 357 4 -495 -289 338 -50 413 -105 0
-158 186 -394 371 416 419 -58 110 -171 -443 -14 71 -131 -247 -129 -492 40 367 290 251 -179 -288 256 346 472 -87 -360 -194 483 458 -488 245 -473 -415 -69 -12 393 -358 -294 -280 10 -118 -126 -167 -173 -204 422 238 -226 -70 168 260 -105 -372 435 -101 41 341 -250 316 -228 4 13 433 113 -16 421 -418 184 232 -195 -206 38 362 149 -164 -255 403 85 -74 348 -96 423 384 349 -37 267 -92 -3 -392 293 -481 -379 -94 174 445 -225 -62 123 -165 -437 -369 441 -187 264 364 86 -252 -48 363 155 -135 -93 -389 269 305 -212 -242 182 328 -175 -465 292 469 -47 0
-231 -297 -72 -107 -240 60 -182 -168 432 189 415 -287 137 -417 -401 79 62 -113 360 61 445 -275 -167 -88 -192 -14 272 -142 -259 -210 483 318 327 -199 269 -383 -159 -46 338 -180 116 226 -130 476 -367 -29 -374 -3 -302 204 413 370 135 229 -245 200 -420 363 33 -437 -117 -320 -284 -7 -405 -490 -335 255 -398 -219 -19 -434 246 390 435 -30 406 102 -27 112 -300 -56 491 261 -171 12 443 -436 -485 234 -468 224 -248 239 421 -148 74 349 -307 -393 -273 35 -303 -458 -252 -181 324 -449 319 43 128 471 126 -315 -169 -127 409 378 358 -451 -469 -75 385 -431 -288 0
-157 91 -156 -482 -69 -256 -219 -497 357 -123 -39 -236 491 301 -155 444 -221 348 -114 300 126 -415 -338 1 -442 -2 -149 -453 350 8 -178 -468 -421 331 467 -456 -305 -317 374 494 -199 321 395 97 -128 -131 72 -345 -189 -99 343 83 -386 -332 -84 21 47 483 145 225 88 -296 280 303 177 -80 -180 -471 -214 -398 339 106 -418 307 -223 58 347 253 313 87 112 141 -188 -237 175 194 487 -325 333 173 460 -117 315 119 417 32 36 95 441 -473 -3 -267 165 406 -33 -297 -393 25 56 263 110 63 -364 295 174 484 292 390 463 360 342 -107 -242 430 493 0
278 -85 151 -73 -225 363 464 200 341 263 280 -400 -23 -17 454 -469 135 132 311 -465 -43 242 63 347 178 -146 -51 -66 -64 -195 -429 -264 231 44 -393 -300 -58 451 243 121 -209 -321 -329 262 344 35 -395 -189 -16 20 84 25 -378 91 -330 33 -186 -216 -208 -474 158 349 472 357 177 45 184 374 336 419 -245 -426 201 -479 431 -173 -284 340 -142 417 305 360 -113 -241 -172 286 -105 257 265 387 -381 313 179 433 162 291 318 359 -110 -76 328 -233 147 -380 -130 -36 351 -483 164 377 -60 240 337 -129 -339 369 19 -181 -427 421 -459 281 117 239 59 0
-194 319 -414 252 186 191 444 200 -339 297 -311 486 -229 27 467 185 -215 372 8 -345 164 247 288 343 -271 -219 -384 -238 202 -300 64 -9 116 -180 -198 -416 -187 -197 -303 -166 79 26 286 84 -284 -460 -59 107 -251 165 71 -249 -106 -366 292 -497 -233 148 212 270 401 -362 29 -440 -224 316 -206 306 469 -39 398 -12 -357 13 -262 417 223 -425 -335 403 -466 83 -86 -203 -31 205 -346 -183 81 282 178 190 487 -347 217 -35 167 387 -51 18 269 80 -112 -22 404 -412 340 370 -1 -338 -220 -426 33 326 213 -182 -126 -161 -409 349 -445 275 -92 -82 -439 0
-15 -59 -45 -342 -379 -407 498 -491 499 -81 -140 292 -156 -428 -175 369 -131 -318 -454 -367 -168 157 8 360 -274 -166 -435 271 340 -217 -381 -34 -301 493 7 -317 321 72 374 61 -487 -23 394 419 -456 453 -258 298 376 -173 450 311 74 488 -373 464 -107 167 170 385 276 473 -210 -495 469 310 19 220 -178 461 255 30 -181 436 432 -1 128 250 -212 -101 215 -418 -98 -293 -129 307 375 -351 482 -315 299 182 -286 -67 -118 -489 -412 249 120 -38 87 206 338 142 472 -5 434 439 211 -48 -191 -417 -17 422 354 -355 251 219 -36 370 -115 327 -350 190 41 0
-52 -147 -159 302 464 -77 -387 291 -498 -113 257 -396 406 -290 -239 -385 293 61 -279 478 -100 -195 -420 -169 -173 -137 -41 330 85 -369 -481 430 -349 -462 -96 -163 296 255 447 472 397 164 -378 80 351 468 -408 -404 461 -36 97 -86 -365 471 342 75 470 -386 -171 307 240 -193 135 360 254 269 47 144 -317 -366 -381 382 -71 229 -434 35 154 -56 -284 -377 465 419 -174 -328 129 -170 -394 -469 -189 150 -411 101 -414 -273 -407 3 -454 -118 -457 -74 -395 -81 157 -92 -334 359 483 322 299 -24 -486 -252 410 107 -341 156 -176 -88 -246 -62 488 89 134 -31 203 0
-14 4 102 -450 195 175 387 232 132 -117 254 287 336 -217 11 205 227 -388 -92 301 80 238 -164 399 326 9 241 239 40 394 -140 -421 338 -281 229 199 77 112 144 -403 -193 362 22 -293 309 240 380 51 -409 -286 -465 -438 -7 443 -460 49 334 -442 216 -99 -107 -74 -160 446 105 -194 111 129 359 -179 -153 -358 -341 -475 198 322 -285 -290 97 72 135 489 -372 -163 484 134 -27 81 491 -78 374 354 431 -59 -183 76 -476 -417 -279 210 434 -162 -289 328 304 48 480 -296 -426 -427 39 -26 2 -36 499 -215 -327 142 490 -420 -237 -278 -411 31 407 0
398 305 -336 -378 113 265 -197 107 -450 -21 391 -212 -402 -442 -475 480 -143 -234 -147 -273 255 -241 -316 469 -298 301 55 -414 -449 348 67 -132 295 -276 -482 270 92 438 -124 -360 -46 -163 -184 -258 -249 76 -488 304 -266 -462 -492 149 294 373 -474 -311 -173 -416 277 -185 361 -245 -280 -82 497 -473 289 236 306 380 -88 -123 -499 317 162 182 17 477 -118 374 5 -181 25 16 500 -464 -328 -363 397 263 8 425 -256 498 -430 -371 -313 329 -356 -461 176 -447 -31 -189 -223 493 370 166 87 -300 -324 388 417 44 194 362 -115 491 -463 268 77 337 291 -75 -303 0
326 376 299 216 -355 476 227 -23 77 -16 -28 393 279 -78 11 106 -248 198 51 410 -489 440 129 -301 39 177 -478 215 151 -68 -188 -367 -163 -457 -460 -170 -230 251 -92 -437 374 191 487 -121 242 -237 -63 -120 449 -249 -131 -373 -332 -291 -31 -130 -101 -209 497 -128 123 -454 -147 -450 135 100 192 470 76 414 250 381 -2 25 -282 -318 -226 -474 255 -241 -164 252 -395 -330 327 -302 104 -378 -208 -297 -402 -406 183 79 379 316 262 -424 -126 -3 143 -354 435 426 443 -366 331 445 392 439 -34 337 -127 -399 -420 384 -85 56 236 485 -304 162 472 368 -160 0
-443 51 460 103 420 263 248 -5 220 -394 -145 290 224 430 391 96 -284 235 194 -459 439 -450 312 154 -93 143 189 104 486 -246 120 221 -16 316 -297 -438 356 405 157 411 65 -40 197 -232 274 -111 -468 155 -351 -150 -61 -142 -12 467 266 304 406 303 465 445 87 -173 -185 415 388 310 -340 -426 315 320 24 -414 -321 -298 319 169 50 389 271 -488 105 364 -413 436 121 -68 254 442 -500 52 485 25 -453 -234 -376 -23 -336 393 212 243 86 408 151 -200 -55 -144 -30 496 156 431 198 372 14 11 300 -471 -195 -219 -422 -174 324 -358 247 -202 -209 0
-147 154 -315 -11 -14 -444 -112 -228 -151 -54 29 192 305 416 -153 241 -190 281 3 30 150 -420 -191 273 336 -403 -38 -107 -278 -311 -274 476 -353 -46 -404 169 -234 368 448 -284 -51 411 -394 495 119 -170 181 114 -436 313 77 24 441 56 -351 432 -360 -285 -115 387 272 -297 291 -202 -488 113 -12 145 321 213 55 -250 -66 -312 -300 491 204 487 310 337 -200 -307 -418 497 -131 149 82 -369 266 -49 464 -48 -95 341 40 -226 -428 -410 218 -141 -104 207 -326 -194 123 209 413 -460 243 -391 97 366 -15 -381 39 306 -455 477 58 -232 -5 -35 81 -390 -129 0
-370 -56 182 153 -494 -98 404 -259 398 143 246 -92 -295 -280 242 -10 62 19 81 -89 67 -165 -262 -350 -77 244 95 -59 -14 -371 424 -444 400 288 -341 157 58 66 166 461 456 441 285 -172 481 -485 -304 -286 -124 -284 -298 484 -17 -46 -376 6 -299 195 -362 -83 31 133 369 -131 489 450 477 -154 220 163 -348 361 -132 -21 -241 -399 175 -210 78 -354 383 145 -372 -167 -347 325 178 226 -253 339 -495 162 436 -386 -414 -478 -148 75 318 49 443 393 151 -147 -429 55 -432 -245 356 -458 418 231 164 381 -121 23 -205 161 -419 -261 402 -349 -170 54 -194 0
69 -432 -234 500 -18 -111 169 -77 491 -472 112 101 -194 119 463 -467 324 -470 11 237 258 132 287 -370 -181 -282 -417 -441 193 362 215 298 283 41 115 -60 326 133 -377 466 85 123 139 -84 409 446 -337 -481 -407 -75 9 343 92 284 459 331 -247 152 -381 14 200 -7 48 428 276 57 -372 323 452 -369 125 435 484 183 -190 -332 -495 498 224 -280 -259 -102 330 288 -129 -318 359 178 232 233 160 401 461 208 367 250 62 244 457 389 142 146 -185 -235 313 -290 113 107 74 346 245 -151 180 218 -402 225 -361 -340 365 -301 -271 -150 37 403 -122 0
377 129 -80 116 29 298 -67 -410 -283 474 -2 -232 -303 183 154 262 461 63 375 21 260 15 288 111 301 -190 411 341 78 -50 -442 274 412 -276 345 203 -327 -233 -87 -103 254 261 -188 -277 -132 225 126 133 -472 -391 26 462 425 -418 -445 -489 -312 236 -491 -365 -19 177 57 234 330 336 -213 -331 -419 357 -130 202 -406 488 62 131 -438 367 -16 -217 -221 479 171 14 347 483 -259 -282 71 -397 -156 390 -158 -239 180 73 -178 494 69 329 -9 8 51 -241 145 89 -99 -393 -11 163 72 151 102 258 115 -90 123 325 -66 497 220 -117 476 -422 -359 0
-115 -81 484 6 -213 137 -151 89 237 358 -428 -496 -369 274 -36 328 -266 -353 -207 -431 -277 -239 -17 429 117 -124 -1 58 -221 -49 60 -461 -245 163 -312 152 299 99 35 150 85 476 -174 -12 -114 -316 -251 -45 -432 290 -146 355 222 7 -301 -499 -343 -210 -55 -322 -20 261 26 -341 -252 408 -75 238 394 254 310 305 -430 -205 -44 334 -354 -132 485 -193 158 263 -83 87 487 264 227 126 -188 59 -419 -479 86 -147 407 -4 -480 -462 288 -98 363 260 -339 225 -292 -73 -208 118 427 -271 -11 346 -125 -235 455 -135 -110 184 -61 -66 317 -71 -32 57 -296 0
161 189 -385 -220 -324 151 -321 -292 -117 317 54 -260 56 -474 417 -297 38 402 153 494 473 454 419 -133 -446 431 4 345 362 -176 497 149 -441 63 -426 24 -475 121 284 -430 204 -489 -228 227 182 199 -33 -103 -492 -15 320 -274 261 -418 -197 410 427 391 -472 -165 481 101 259 -465 270 -83 428 267 -476 360 265 443 453 459 386 -468 107 -71 -68 -449 -310 -457 -66 400 381 281 -158 -296 159 -422 -250 -13 341 -331 308 19 76 424 -61 -58 447 168 -495 -390 119 -467 213 -28 -435 -11 105 371 480 94 -323 188 -229 -146 -30 -334 -212 -491 217 -312 -299 0
89 162 -152 198 -383 112 394 73 93 430 -17 316 -337 -196 271 52 153 -130 -158 -15 115 226 132 23 407 473 320 -330 -7 200 313 -111 247 -133 -457 -459 -476 -39 -349 -228 350 -114 -224 -94 333 -246 303 -92 268 -100 -356 -190 -221 342 -222 -126 -384 258 486 54 295 -493 -450 284 -340 400 472 -487 380 -233 -423 -174 -220 -296 -157 315 302 420 -25 14 178 -6 -42 63 67 -4 -28 -405 -227 267 386 -184 -61 -431 280 435 79 -344 -266 331 58 -167 255 325 -160 182 -485 -403 482 -127 -392 -256 307 -117 -230 -275 -195 -463 326 332 84 278 -32 -343 181 0
83 -103 -340 115 -35 -209 -273 -48 331 290 472 494 -143 327 488 251 136 356 -165 333 -71 500 -268 -148 -495 -104 302 -378 334 -263 474 -307 -362 92 16 -68 59 -226 -96 329 -446 -168 281 -301 139 298 -390 413 -181 309 74 -208 189 28 -325 -435 -350 -484 -141 -13 -415 -284 -218 -98 386 -207 -473 -114 -485 105 389 109 -260 274 496 -239 -283 122 -184 -455 166 -408 20 147 -303 -49 -315 365 -317 405 -321 430 -132 457 -348 84 174 228 434 402 -6 -300 467 412 -440 288 437 -470 -30 -196 385 -441 -107 364 -493 -497 -264 272 -230 -157 -42 -259 -399 -45 54 0
-364 -112 -111 487 328 157 -482 -117 373 215 -363 -406 -118 256 25 241 -124 433 272 -337 -72 420 -190 37 -74 -443 -133 394 170 -162 -267 -341 173 440 324 196 -150 -442 450 -374 -53 -477 -447 94 236 -42 375 -58 123 462 417 368 -83 -351 232 -333 -288 -182 52 -33 23 -459 -305 -274 113 126 -395 494 326 -212 46 -240 335 68 -382 480 90 -427 -386 183 -89 392 -290 -192 -8 -303 -223 485 -110 350 -129 -403 416 405 -345 -127 -499 154 354 353 48 147 -116 -491 319 -286 318 -165 -411 -185 -383 -365 24 -490 -102 137 314 -10 -358 -80 -242 -244 106 -220 356 0
-356 -413 -113 -27 187 -448 -273 -261 414 -363 -353 340 -262 -11 -67 469 -185 111 -21 424 -69 -378 473 -131 -206 204 163 165 216 -399 -287 208 -239 -461 -373 144 290 -468 383 217 -372 454 490 -458 31 241 -445 -318 184 190 -379 275 -19 358 -148 173 248 -332 393 -120 51 -42 -207 71 346 -404 -481 44 166 295 -65 -302 235 500 17 265 -143 370 107 103 -298 -200 186 -277 16 -218 249 -453 -479 89 -309 15 -368 20 -160 -421 -348 352 -174 -179 371 -164 -492 496 499 -172 282 264 219 -475 -297 109 -75 90 -124 162 312 3 224 323 -52 9 -322 292 -240 0
344 358 -334 161 304 203 283 458 55 -316 -267 -394 -322 308 -41 -242 163 84 396 -110 -276 274 -500 -218 46 -475 -382 -83 57 -158 424 -366 354 27 459 249 403 -153 251 -332 486 -154 -100 90 -440 9 -165 416 -17 371 151 253 -3 -201 319 429 439 -170 -454 144 481 -171 -320 -266 86 -423 492 -79 -42 -237 199 8 446 467 255 359 214 103 7 -30 186 -101 -73 -436 202 375 -301 -345 461 -164 -20 -289 390 -246 209 -293 434 221 -374 493 273 187 -468 -280 177 -82 -53 245 -222 -362 -28 328 -433 -455 -370 430 147 -11 -377 -309 -340 373 -456 -387 483 0
-62 471 -387 -350 227 334 377 355 -97 210 129 427 -154 463 -476 -6 -215 223 -383 -176 435 -261 -226 345 -235 257 -155 -67 437 -373 -248 -119 104 -94 84 -389 27 172 322 179 -17 310 254 497 -488 122 205 216 -443 228 -199 32 -87 -219 -343 -78 22 -375 52 338 -402 37 -361 -53 -412 -181 31 292 -177 196 411 462 209 280 -321 -203 -446 455 -439 -123 483 -73 -499 128 -400 434 395 -124 -419 -40 -365 147 -352 -362 -229 -213 410 -99 -500 -305 28 -418 -330 -281 -187 132 -408 -266 -113 -344 -316 -376 48 342 -431 -165 -331 -169 11 -41 -390 -79 -236 -382 192 0
-15 346 -499 11 -308 170 223 -354 180 471 -46 -483 -347 498 -198 -82 -23 221 171 1 -291 399 436 -185 135 143 -261 -138 337 -371 -17 251 -233 -404 -116 255 266 6 376 70 443 149 -145 328 373 419 4 -384 -408 477 144 211 -40 204 -342 -484 25 147 -34 -488 -489 -356 -284 -365 474 445 -98 318 -434 -84 151 -130 -367 119 -258 -118 -24 48 -175 27 364 181 -174 219 53 -30 -497 231 437 -177 330 -97 372 -357 457 230 -352 61 -398 -31 -127 45 176 -387 112 270 400 491 -128 194 -368 -334 -182 432 210 240 -49 69 455 -13 -293 -395 262 396 32 0
-460 461 499 91 -462 324 -73 192 154 224 202 -406 -214 3 -280 -62 271 338 127 -386 34 169 168 -181 -428 -267 137 -298 183 -384 50 376 237 -174 -291 84 268 165 132 -317 371 487 -322 18 244 -340 -117 21 -10 185 360 -445 272 87 277 155 -72 419 -123 -303 17 420 261 326 274 206 203 -187 469 -260 249 -301 -149 -112 20 321 -483 -446 -213 425 -164 124 -141 -314 138 231 -312 -441 -161 -382 393 351 212 -49 308 -252 -276 54 -110 275 484 270 90 -27 -118 -160 -405 359 -362 -76 339 23 -479 135 129 11 -353 400 93 65 -295 470 313 -330 30 0
-479 444 389 -304 287 -363 -405 -200 -439 -422 -256 -447 -320 -311 69 -35 18 45 -126 109 -362 -451 -388 -298 442 125 -433 -276 -152 227 -403 -52 -62 -269 373 5 -398 -274 37 -327 -44 -485 -156 -435 407 71 499 236 291 137 -111 158 -462 163 390 -27 313 -218 -368 -260 224 -360 497 77 369 181 339 -131 -409 324 420 -42 -175 -281 202 464 355 -283 483 173 -85 -103 209 -121 -500 26 469 -393 237 441 16 -330 -21 489 -127 -73 385 -76 -43 255 19 -461 81 231 24 443 94 -430 415 -458 301 46 305 40 436 -341 410 310 -423 -404 -183 138 375 307 -208 0
-109 -289 -398 -131 -143 -483 300 -117 370 -52 57 -452 1 491 -171 113 -59 -114 148 257 161 -362 356 180 321 -10 -204 -182 -285 3 462 -234 -207 -385 262 9 -474 -330 486 157 228 416 -35 -432 46 -268 365 56 190 -270 -251 88 -313 218 -45 -405 436 -44 388 -404 327 293 -305 429 214 93 -96 -75 -480 280 -123 -181 200 -242 17 348 -331 -296 463 230 86 -306 -37 104 183 335 246 414 -203 -79 -36 -11 -22 451 369 235 -481 442 333 360 -225 -326 -282 265 -314 -374 -48 -255 450 -317 -8 -273 -220 -224 236 284 40 229 -18 -467 -15 -42 -364 -163 472 0
-25 492 330 374 -465 -345 26 -449 187 312 426 497 -19 -483 119 -360 199 -31 -448 -232 -62 136 145 10 198 321 485 267 441 473 452 -241 380 469 196 147 -6 -87 76 -346 -50 422 311 -343 148 207 433 -59 80 -11 -22 -107 90 -41 39 -238 -415 16 157 -493 255 -409 -481 -339 488 14 334 432 109 -81 -28 414 214 -327 188 101 392 -118 48 230 9 -470 487 495 -398 249 202 103 -223 372 208 466 -38 309 -283 -287 -406 -63 -386 -144 237 -284 -340 -491 478 104 -313 27 -310 352 303 184 167 -435 307 -67 324 -459 -430 -116 -475 -55 -298 -5 288 0
-351 465 302 186 118 -353 102 130 17 243 140 234 -177 471 -453 316 245 -338 480 499 -69 218 45 -490 -16 219 404 -14 -108 -232 414 27 -68 231 155 181 53 -253 203 -433 -494 -80 -31 -172 483 308 -115 281 -339 -485 -241 -482 273 384 -242 173 307 131 300 344 -25 -74 -429 418 -387 193 -475 -378 -377 -262 20 52 110 103 -36 -271 322 -185 -468 12 422 91 -87 -469 -451 47 -355 238 496 486 443 -28 142 -278 -255 -420 -3 -90 -328 461 -55 -211 -436 84 323 49 484 -11 397 -357 489 341 -437 -107 175 -470 56 2 154 -120 -498 -462 -224 330 44 0
182 482 457 -475 499 101 248 -216 16 347 -212 209 214 -167 -461 -160 24 194 208 -84 -70 -181 -387 -166 -295 83 -32 -3 -132 271 308 337 95 -434 -54 222 448 253 -421 360 221 257 -321 348 431 -226 -202 6 367 25 8 -157 -455 -349 -379 302 430 91 50 -215 259 418 -265 211 269 -18 -394 413 -498 -41 176 479 -162 -37 -377 164 189 477 258 -446 122 22 -44 -172 -134 389 99 -451 -15 -289 4 186 440 311 -12 372 -382 98 -136 246 -303 342 -79 -272 470 -115 -363 52 -192 -426 -113 -142 -378 -489 178 197 306 -10 -262 -13 -198 406 268 138 320 0
453 385 148 477 -45 -288 -396 -48 -329 -369 -15 -165 304 -262 402 343 -268 483 -287 36 -108 22 28 456 80 -105 425 -285 -322 429 -136 -145 191 181 -83 426 -423 -200 457 -337 16 -480 161 -162 -473 129 33 -236 54 -53 326 223 -246 -256 410 -341 278 420 493 -291 276 -61 -499 -157 358 212 299 -471 281 -258 443 135 -386 56 141 387 321 57 -460 306 474 267 -138 -194 -243 -214 62 -5 239 497 333 -169 -352 366 206 -249 -92 25 -151 -296 -318 -198 -257 476 -488 -97 -260 -346 -201 -248 -475 -500 428 211 -35 -421 -174 438 375 -102 -51 23 -116 2 139 0
-79 -20 -162 -302 -426 -219 -140 -371 -291 -65 252 150 -269 443 -343 200 136 -156 -209 -261 244 223 212 304 -131 225 -335 -119 -419 -67 345 427 271 -438 44 473 -377 299 385 116 -257 -179 35 41 413 -75 -7 312 311 309 258 -133 465 435 -91 273 -8 407 306 303 -330 -275 141 -357 -175 72 -181 109 432 -205 -157 -389 -390 -228 -255 352 488 246 -333 17 282 472 -3 149 111 -110 494 -9 -108 301 -319 -96 420 323 185 -428 -267 499 174 78 416 480 159 -293 307 -402 82 450 -259 -70 184 454 -22 -349 -103 -94 242 -461 -120 -60 379 -388 105 300 -33 0
-150 447 -237 -372 -457 -50 129 -312 68 473 -296 77 -70 363 -498 -340 65 2 -332 106 -358 -397 275 -349 57 115 329 64 136 -467 362 406 -330 -148 -133 -463 351 -497 -310 -173 152 -61 -142 -384 207 -357 235 -376 212 334 -433 -28 242 291 453 -192 14 500 -309 -299 -297 368 -347 -423 -439 246 407 162 -194 -259 -386 367 -435 257 175 333 -339 -143 9 -464 -220 -206 183 -293 491 427 492 -217 -485 -197 -229 -94 170 355 295 166 -322 -118 446 -356 83 -270 23 -496 -364 193 -304 37 468 311 404 -26 382 -398 -16 177 -253 -69 268 -420 -218 -179 269 -402 18 0
-12 395 -463 216 -379 -39 445 -20 -292 -252 453 -378 460 -380 -64 8 -416 -458 -405 -225 -443 220 102 -423 15 -432 251 -155 200 7 -222 67 326 421 -228 22 480 493 -280 -441 -136 307 -409 345 68 -470 -14 -169 -285 437 -80 318 242 -254 -16 -38 385 -88 439 -167 322 419 -189 -389 -462 41 -275 -143 -81 256 255 -444 -465 388 264 24 -327 6 -477 372 40 60 399 -246 -270 247 487 -469 111 -240 198 486 454 316 -212 121 -396 312 -235 108 -95 -475 387 -424 49 -62 -103 146 -93 373 32 160 -253 -305 268 55 -374 -117 -152 434 -78 -368 300 267 98 0
-475 3 479 130 75 -359 11 -379 -39 -127 -246 32 103 -323 137 278 -183 442 272 -411 403 -55 -52 488 -481 484 425 304 408 -175 -138 -489 -95 283 -162 -328 322 -495 141 174 259 350 -204 -186 270 -252 84 347 277 -42 233 294 -310 -114 -364 -458 -380 493 -139 -451 54 -143 -57 377 -6 -307 346 -236 -390 61 432 219 248 156 196 424 299 181 -50 -426 30 306 72 -345 -351 -437 321 -264 192 223 -400 -376 460 102 115 -202 308 224 -470 -161 74 -119 301 163 -203 207 440 -260 -18 -108 -9 -59 370 -63 421 459 -417 36 -263 111 -342 4 -367 298 305 0
-175 -315 218 -239 256 114 -179 323 168 50 251 288 223 474 405 -10 -187 135 240 273 -406 151 -78 -226 244 165 -31 91 185 -452 -136 260 67 -314 -433 -397 -386 245 202 -148 -133 73 250 266 -145 -44 465 -479 -192 -52 304 335 -64 98 -471 407 294 254 112 59 180 446 -334 -232 -140 -153 47 -365 -222 -373 401 71 130 85 -104 -444 492 -376 470 368 381 -340 -118 -205 -265 -163 -389 -434 -317 166 272 -472 -276 -66 -255 -198 -208 -113 -426 161 356 388 -206 -327 -4 423 -395 384 -354 -494 357 439 68 390 -410 -2 493 231 -431 24 -306 134 156 -197 -87 0
-249 30 466 -165 469 452 -292 18 -41 347 423 -323 343 327 -5 122 434 115 -402 116 199 73 496 -481 499 -58 -341 320 404 -93 205 -380 -381 -103 -460 475 -447 171 -289 294 -213 -346 -492 -438 -210 -88 -369 -209 345 -74 143 358 -329 291 -458 -120 478 -14 46 -60 82 169 334 119 -233 253 -17 235 -287 -255 474 -298 -396 204 257 -465 -386 125 -421 -22 25 225 -324 -282 315 -2 85 384 377 432 45 295 311 424 367 263 -405 -397 360 -160 -145 -461 26 390 -52 450 -408 173 419 99 -310 105 37 330 -198 -337 168 -48 403 130 117 355 54 286 -20 0
-189 484 395 54 342 86 259 -237 491 473 -454 -31 373 -178 479 466 -232 -177 -367 -312 -40 -472 224 97 -456 -262 336 462 468 69 -239 19 -489 -226 406 -460 320 -498 111 -253 -413 -330 -271 459 261 -167 78 -356 -77 -159 458 172 218 364 150 -65 348 414 289 -260 -392 175 278 429 28 35 -452 50 123 223 -249 286 -432 315 409 194 176 441 -448 149 162 -469 128 1 -318 10 -317 -181 -222 -186 -209 -236 -328 145 200 -307 207 428 -496 295 -20 219 113 105 -385 341 -74 -64 -332 -235 -182 5 147 75 -361 114 -333 -337 107 -453 -403 -47 386 115 -83 0
-453 -207 -296 -156 -14 -50 151 -231 329 -200 -394 206 259 -101 -99 -389 205 -76 144 -437 113 128 -450 167 344 183 371 280 -164 -115 80 -393 -211 -467 -37 -159 251 288 64 -179 496 68 241 -401 -145 -236 -379 -79 39 -411 273 473 -400 137 292 176 299 -488 432 89 -97 425 17 -60 351 -455 -218 -383 -447 -204 325 -224 -481 -464 32 -444 -314 321 46 -353 -106 146 38 -120 -214 -173 172 -153 -395 257 -193 -82 16 -489 -104 269 -460 -446 45 445 318 59 254 -266 -229 -384 -223 -215 -122 -168 126 484 88 -175 26 21 458 472 94 -78 471 -414 -360 130 -51 0
132 251 329 442 -309 268 386 -209 325 418 114 -344 477 -403 -20 -446 -470 102 135 -260 -181 -130 171 138 165 -262 -488 343 -134 -440 471 7 392 -143 2 240 113 -315 -41 -259 254 147 140 38 13 122 454 -412 -261 124 -172 -47 -10 248 -444 -146 -158 -481 -377 384 382 -94 -15 57 -307 -52 234 200 217 -264 330 -195 266 -452 -14 -223 126 -83 191 367 177 37 317 225 -196 -303 1 -379 482 -227 -99 -263 188 115 162 383 91 201 -273 242 361 -56 245 17 491 -44 85 -49 381 -437 -424 68 432 163 210 35 -428 58 -105 -357 12 -28 93 137 -282 0
369 224 -485 322 348 -45 36 74 40 -392 -487 165 394 276 422 -18 374 44 -24 -326 141 491 -399 -181 339 -89 -264 -147 -250 -380 -194 85 142 300 133 247 476 172 211 43 -317 466 -97 -398 -58 151 -159 446 -19 -77 -455 190 -292 -70 495 225 -191 245 207 13 -15 -180 -33 296 497 -35 138 -280 -425 -189 -415 227 -354 -313 -431 -337 237 103 -270 -439 234 23 129 232 -7 346 -448 206 -421 -107 -78 177 -324 -243 63 -387 -72 -312 397 -71 411 -130 -149 -281 329 385 -21 156 273 -255 -143 251 479 -25 -462 272 -343 -341 104 -128 -473 -238 -402 -160 488 0
-373 -184 -393 -56 334 120 415 99 115 -437 -316 273 -149 119 40 -292 -241 141 -353 -390 -494 -370 -11 -200 21 -290 73 -322 312 448 402 186 -136 -300 -51 203 -284 -105 -376 -479 48 233 -50 436 70 -381 37 -366 49 -426 474 76 -45 -183 360 -54 211 -27 123 206 65 -344 -275 249 -404 -110 -12 -205 -493 -345 -230 -320 -176 -189 -259 97 35 -111 -125 144 78 -240 482 129 -23 228 -264 -385 -306 -342 167 481 453 9 328 86 -447 -218 -124 253 -411 127 476 378 39 -416 -32 408 -237 20 -427 -93 331 -181 100 -222 213 -354 -121 172 -157 386 496 80 -305 0
-292 197 -217 120 -76 214 429 -41 211 -263 -71 36 -16 -72 -22 -93 325 -317 103 185 290 432 408 -27 254 270 99 319 453 -224 -14 -492 -374 -165 -94 462 -169 -449 -231 331 356 262 170 451 133 225 220 24 499 372 118 -259 241 140 435 448 469 151 358 -281 -1 -312 244 38 -37 473 252 329 -101 -305 -69 -403 -15 -33 -405 -46 450 25 468 306 -397 -200 310 -287 -61 -467 -78 -427 379 -45 199 -398 313 -10 -496 286 70 -237 488 -382 -239 187 276 353 -485 -124 26 18 -273 193 459 122 -368 -315 -218 -77 178 228 216 -251 350 314 -54 -422 66 0
-357 351 215 219 -16 -225 54 139 -312 -342 -125 234 374 33 299 -71 413 -358 -404 -38 212 -408 -288 -286 451 255 -186 -462 -354 -201 355 402 -182 -250 -51 -316 193 458 -473 -478 -43 -352 -275 -75 -287 -425 116 162 417 491 -87 -135 -239 264 -46 156 475 493 272 -79 290 482 247 -249 -338 359 -444 -84 363 -319 -233 -115 284 -74 439 -411 37 -372 244 262 391 -383 -45 325 169 184 -303 -194 101 -205 172 -271 20 -124 -265 174 -228 -388 129 50 307 -6 -23 375 -470 -188 178 120 -466 -134 -386 -450 151 465 -148 -14 -437 -86 159 63 245 -301 114 -382 -443 0
-405 -372 312 495 -206 336 -422 63 141 134 136 -140 -364 34 371 -463 -163 -280 233 81 1 360 -425 251 189 -103 168 -314 -42 -121 69 274 19 323 344 394 116 325 -54 -149 155 20 13 369 400 43 40 412 428 216 -488 57 -343 -194 299 420 232 -481 2 313 434 210 -115 376 -109 -108 147 22 25 -214 -26 -496 -8 -160 -66 -404 277 -173 298 270 -423 182 -416 -427 -30 -98 183 -363 -421 -146 238 -349 396 -268 -315 91 -200 59 -203 390 -137 335 272 38 -426 -224 -448 379 -209 -455 -87 458 118 -468 -186 337 -407 -401 101 479 281 184 15 -231 -437 0
291 -258 351 -198 -294 -305 -460 15 165 224 -271 126 -53 177 252 -406 -63 478 -407 -494 414 -159 -69 21 287 -51 -267 -28 112 -327 -424 -67 188 -246 -288 41 142 154 464 -483 -292 -7 -400 -219 -226 264 -452 66 -234 -450 -421 -29 257 -276 73 -440 -123 -166 386 -223 86 -302 -436 -172 23 284 8 -384 197 381 -439 78 110 -72 -93 -283 245 150 95 333 322 118 189 251 344 -388 -25 -404 -274 -42 374 301 -83 173 -37 3 -349 39 477 143 167 -473 217 321 68 -360 -451 -178 444 54 -293 -493 -215 22 272 -277 -429 468 359 13 389 148 -131 -332 84 0
451 351 273 -382 424 429 113 -313 93 237 470 -151 -328 85 -418 472 -131 411 208 -89 -398 -425 -34 479 9 213 -111 -365 -112 -32 -210 -257 -340 453 265 334 216 220 290 42 -255 -181 -499 493 495 -491 -74 63 481 -71 168 -480 121 -441 19 155 353 375 44 -163 116 -176 276 7 203 408 47 -327 407 -159 450 406 -343 -259 -96 -90 -234 -152 88 189 57 431 55 -66 240 -170 278 -35 -366 367 -11 -115 -28 -99 416 -1 444 447 308 244 -183 91 100 -21 383 391 154 140 87 -22 -421 23 -241 185 -149 -191 329 -79 384 483 17 486 37 360 -126 0
11 -291 379 259 3 -295 -223 94 -376 181 -344 -200 -489 -419 -470 -335 213 304 -126 106 451 -233 165 392 394 -158 217 -414 8 341 -488 210 -409 -369 -16 31 15 -305 -334 296 24 86 -289 -129 333 447 469 193 499 251 373 -309 -294 443 7 389 -68 403 -203 318 -272 -237 337 -117 154 -61 -229 2 -124 66 -300 -431 -81 -216 348 358 239 -351 -21 -324 331 -306 325 -408 100 153 -243 -436 279 479 315 352 -413 -144 -13 -148 -113 269 12 -463 395 -387 245 -453 461 427 -214 -416 -345 112 349 420 98 -230 255 452 265 -83 -339 -428 450 -418 434 -274 -77 0
245 469 -127 -413 285 135 -169 497 81 -312 -101 -217 435 -307 46 -11 -116 224 -52 -302 -150 -51 -269 47 -263 248 -227 -171 287 460 449 391 78 -123 306 223 342 364 -213 193 185 -425 -326 -220 36 38 -74 349 191 187 430 -29 -317 -75 424 -32 62 31 -166 18 -488 -98 290 -69 -243 14 -173 -50 -343 305 -429 472 146 -355 229 422 -72 194 143 163 -418 -457 -416 -456 -464 -100 -113 -375 -112 -462 257 -367 -45 -37 5 476 -204 -41 -165 -225 -399 265 10 97 -141 155 -132 347 4 -24 -231 -344 -331 -465 182 -415 249 -13 -480 368 -233 377 277 -390 -183 0
267 280 253 218 64 87 208 -327 -4 282 389 -411 -232 -356 460 -259 249 -465 256 408 217 -299 108 119 -241 88 -130 268 -63 -258 -363 -430 219 109 236 -182 -288 148 -311 -281 -393 163 -419 -145 -234 26 128 300 144 -129 -489 118 484 187 -475 -47 -345 -177 -24 497 405 -478 -12 221 -114 370 -315 -168 -13 -496 472 486 -127 -97 402 223 142 -314 -251 62 103 482 228 -231 -366 -260 443 -371 -150 98 -137 336 292 410 -15 -56 -309 -257 -194 -381 485 -334 -19 -365 77 -483 184 -22 -1 -76 -124 463 -488 457 495 -178 -79 -275 192 -469 -60 426 -387 -240 -147 0
67 -447 -39 357 -204 143 -339 194 -308 -108 345 233 -121 -157 -115 -343 -298 41 -452 -293 124 -404 477 -351 496 -263 79 16 -169 -52 -49 478 -276 66 -173 -160 398 189 -284 254 -323 -401 179 -181 -136 231 117 -282 -369 144 -120 81 286 -197 -141 416 75 -313 376 -195 -127 -434 -450 46 383 366 -329 -495 19 -84 106 -13 -86 388 268 327 -464 394 104 59 64 -331 -301 406 -374 -279 145 -474 -205 311 399 490 208 492 446 -56 271 -21 138 199 405 227 -420 330 216 -185 -180 -466 45 193 215 35 18 -380 285 -269 -309 -137 -118 -214 -68 -148 -402 -280 -299 0
336 136 -165 148 56 -2 -207 -177 365 -110 288 213 443 -295 -63 -248 151 -427 -312 -139 -296 439 441 85 -422 -231 -131 348 13 193 160 449 183 11 -326 107 433 480 359 57 310 -398 -118 218 385 -246 -452 -314 -315 -105 -349 -395 -221 20 323 289 138 48 -212 -379 -49 -73 53 301 42 90 -94 220 -186 234 -202 333 10 -196 -483 -430 420 -6 -187 363 415 -471 269 450 325 124 -112 -8 61 -436 255 -17 -209 -364 -468 66 300 150 39 142 -275 -182 -164 -233 -497 371 -335 -290 393 -55 -362 -407 -260 -176 -15 -29 143 137 -489 -297 409 -442 -485 72 241 0
452 212 190 477 -365 307 -234 -481 -356 318 412 -372 16 156 147 -129 -440 -236 -218 -276 463 -133 -390 -54 -330 -495 14 -22 -315 -368 -72 -88 -222 429 -81 -201 274 -95 -59 290 -166 -252 -223 -104 474 400 -206 235 247 -319 -367 -352 -172 413 -456 219 164 -142 -383 -39 178 -204 -426 -155 371 73 447 -403 -227 344 494 248 242 -6 272 171 -62 -445 269 -328 -398 -364 439 361 -161 -213 340 207 -169 -408 124 241 107 -174 312 309 -31 32 27 468 -464 225 294 -282 68 153 -346 67 93 230 -123 -410 -48 -75 -297 -66 -233 387 -401 -337 399 -483 -316 137 431 0
-442 -65 256 -30 -150 125 134 89 -19 403 454 -303 -88 -396 -57 370 -485 62 122 -328 -290 29 -298 -438 167 34 -54 411 -405 265 -460 170 -186 -397 161 -493 324 496 -492 327 -133 -26 -431 -322 -497 -83 98 -145 -93 -230 -99 254 -13 179 -333 -402 -337 -342 -118 -173 -94 253 121 -368 -132 -31 491 96 -389 -258 -219 -364 -28 104 229 474 317 -428 130 -311 271 457 348 120 37 70 375 7 127 136 110 -380 182 302 139 -15 -326 -123 260 301 -308 -212 -419 -279 -439 -142 -12 243 47 -358 3 209 -349 -38 498 471 22 479 -441 -240 -168 138 282 -11 -376 0
-392 -351 172 77 -247 -13 -313 -218 94 95 -8 -111 -265 -336 -102 -270 -40 375 -216 18 -416 -196 -420 349 251 -114 89 459 -317 267 -342 333 429 101 141 201 -262 499 -187 -469 371 468 191 -321 388 -100 245 -281 412 402 403 -149 -435 492 -67 -210 -291 -36 -144 164 -419 355 450 -364 -477 289 -443 -227 268 166 -472 283 458 -54 -125 438 -295 -332 423 -222 400 397 161 -489 156 -324 -162 15 380 -254 158 -61 233 -9 385 174 431 358 -198 384 335 220 -290 -306 -286 10 -410 -209 -148 -115 -138 -261 302 183 -152 79 434 -493 -288 -409 -28 -242 -273 208 -500 0
68 80 337 428 190 -29 199 312 -158 -163 -45 -225 -15 405 -5 -250 -41 357 109 414 231 401 -423 222 -359 53 363 -21 444 141 162 -28 -186 -374 339 443 353 366 83 73 430 -266 454 376 281 218 -166 -19 484 437 233 -169 23 -37 299 246 438 179 -104 229 -59 216 -32 -227 43 86 -174 44 -491 61 -422 419 -347 -203 -75 265 -251 200 -147 -448 -292 -24 -480 84 -305 65 369 -453 66 -267 435 -156 451 -314 -1 -16 40 -460 -343 -7 256 128 -383 -125 -476 318 -371 375 -94 426 -394 -478 -372 384 6 -356 283 146 -321 -67 -89 81 284 204 -184 0
-213 -406 153 239 -394 -492 -170 465 -211 356 416 -76 27 -165 59 -40 -163 392 291 -461 100 -210 -114 369 280 -435 -199 -303 -265 447 298 468 30 -205 -178 138 -83 454 -25 147 125 -78 -24 245 -429 120 271 345 -43 -70 81 127 -194 385 374 359 407 -260 -350 187 -344 -231 251 -142 -479 -449 131 -66 169 200 101 357 -159 -123 -362 496 -427 -346 102 31 162 -85 -55 44 -294 -343 402 -287 -347 370 79 -455 -254 -110 -397 378 498 441 -400 -355 -8 348 -477 -365 -351 -186 -156 430 -177 -190 -137 -37 141 -109 -115 431 116 222 68 341 272 381 -192 -51 111 0
187 442 294 -367 -435 449 -105 480 -97 -430 299 87 164 -455 376 344 -280 463 -361 324 -199 399 485 237 262 177 -86 378 103 362 -217 366 -46 73 -335 -191 375 451 -348 -306 110 468 62 -498 -116 -12 182 -207 -234 238 -351 390 -475 336 -228 102 -181 243 -448 421 -224 112 43 -59 275 350 121 107 244 -486 332 14 -343 215 470 -450 -322 -211 -209 166 -38 178 -203 -441 222 -309 -414 -488 466 -436 -319 412 -15 239 274 -467 -490 -353 -409 -212 -68 -89 206 111 142 469 175 -478 334 483 145 -391 -406 9 158 -487 233 402 317 418 165 -154 -40 365 -226 0
-178 -35 457 -214 -33 -262 -355 -480 494 -150 304 171 -9 -72 -204 332 179 -77 -427 117 -393 476 -307 119 34 183 -492 44 -365 -463 -62 -279 322 -461 -208 -443 -54 -337 -474 292 429 400 275 25 -445 -219 -36 479 -259 288 188 -144 -295 309 -487 -232 -121 -203 -339 -361 401 -403 16 75 267 -18 41 -261 -120 -195 139 412 381 313 336 -286 64 -196 -95 317 106 200 370 -26 -167 -435 -369 -147 123 268 -266 -129 387 -360 181 161 -12 283 308 -37 394 -334 199 -377 66 -484 -491 128 -192 254 101 243 -290 -437 -134 419 -82 28 -345 29 -315 -446 131 353 -265 0
307 -439 313 -377 467 -412 192 -423 -36 369 -57 64 -288 11 -438 289 417 383 -390 -325 256 -109 140 -452 -121 152 -300 370 -374 -19 101 -190 -52 -221 402 -388 -161 -499 170 -453 -446 -270 -445 242 -441 355 12 267 -168 247 485 323 -4 -463 401 381 235 119 -200 -477 365 -163 471 -88 233 -253 -266 -406 350 -43 125 -141 -335 -451 66 25 -360 -175 16 -286 -279 269 -72 480 241 179 278 -292 492 -273 34 215 -158 -428 -456 262 -182 -464 -245 -169 35 -14 384 298 -324 497 486 -449 -114 -398 -264 178 -95 290 250 320 -240 -100 316 92 359 419 89 462 136 0
358 221 -71 -342 -193 237 49 -242 439 35 207 405 110 167 216 461 -186 -166 5 -370 -8 83 -164 429 367 -84 -435 301 468 172 -266 -129 85 184 -105 68 -182 362 -188 -490 -229 413 -63 67 486 -231 -144 24 -44 389 230 -453 243 120 17 149 -208 -48 -7 -302 -462 446 341 37 -365 259 432 275 305 -456 -255 -474 391 -272 -409 191 -28 386 -346 464 -422 -345 12 316 447 338 397 38 -147 331 -361 -395 -233 -102 -174 285 139 -181 463 210 1 376 -60 379 -426 388 -212 483 336 -23 -99 -239 249 240 -330 -421 440 306 -304 40 -50 360 -64 -438 158 0
-485 80 292 2 -493 400 -24 210 -15 495 -435 -440 -326 -110 32 156 -229 -117 -69 99 -155 368 -431 -268 -159 -53 339 152 396 145 357 -289 151 -214 328 230 -398 -367 -335 -207 -392 188 465 127 -52 203 -197 -444 -75 -401 -34 -352 -65 283 -303 -421 195 101 448 178 181 -430 373 266 -251 -363 220 193 359 -439 248 372 -211 4 -192 14 -390 -84 -260 332 -346 406 428 -168 -120 -57 -8 68 295 -447 393 133 -176 -91 -42 255 -165 340 105 94 286 241 -408 -324 409 -147 387 74 -420 171 -76 161 63 -404 -204 49 -190 -115 -17 -334 -449 157 -202 -434 411 0
405 -154 310 224 -40 -294 380 -432 -350 192 303 -464 -359 314 -470 -123 -352 -353 61 448 225 326 -18 291 328 -496 231 -20 138 -201 466 330 428 -342 244 -499 -128 -143 -469 378 -424 290 301 -184 336 -195 -375 88 -153 171 423 48 -415 -218 -343 12 386 -90 73 -37 -458 -13 288 -118 441 -43 418 -300 228 -9 -173 327 315 320 -487 212 450 419 -345 -498 -403 446 -34 -388 -387 -142 108 -449 456 270 62 129 -85 265 70 222 -271 187 -425 168 -21 -256 -134 -144 -161 322 -59 -460 -494 -426 -396 324 254 -93 -213 -409 -146 427 75 80 232 47 -22 442 -461 0
