c Random CNF formula
p cnf 50 200
-15 48 -4 0
-32 15 49 0
-38 -40 34 0
-2 10 17 0
-31 29 24 0
-26 44 -36 0
-13 -39 50 0
-36 23 -42 0
-7 -38 13 0
-41 -4 12 0
-12 -33 17 0
2 -6 10 0
-8 29 -42 0
38 -47 -43 0
1 -39 17 0
10 -41 35 0
40 8 6 0
-1 -6 -40 0
3 -38 -34 0
34 19 -6 0
27 -4 -10 0
29 21 6 0
40 13 -34 0
28 -49 48 0
-39 -48 -36 0
-38 -7 -43 0
-7 -25 29 0
-7 -12 24 0
-1 36 31 0
4 47 7 0
-14 -36 -43 0
-48 2 3 0
-50 27 38 0
-42 -38 -35 0
13 43 -15 0
-3 -12 -47 0
45 -40 38 0
-16 -38 20 0
-33 41 -13 0
29 -5 22 0
-40 -3 8 0
-14 -25 3 0
7 -30 -26 0
-15 5 9 0
-12 -50 32 0
-48 -30 42 0
43 30 -29 0
16 9 28 0
39 2 -28 0
-39 -3 -25 0
-19 -30 -6 0
45 16 3 0
-5 -22 30 0
7 25 -36 0
-26 8 3 0
48 -26 -18 0
-35 -50 -7 0
-32 6 -3 0
16 -10 -36 0
-12 -49 46 0
-5 34 -35 0
48 28 -31 0
-10 13 50 0
42 44 -23 0
-8 -19 7 0
4 -12 -7 0
-41 -40 -14 0
-46 9 -5 0
-1 -40 -11 0
-15 -31 45 0
50 -47 5 0
13 34 18 0
-30 -43 4 0
44 18 41 0
18 40 20 0
-6 -38 -26 0
-40 42 -37 0
12 24 39 0
-50 -26 -22 0
-17 30 -18 0
-20 -7 -19 0
-50 34 18 0
-9 14 -47 0
-33 25 48 0
-25 -33 28 0
-48 -5 8 0
-1 -3 -50 0
-1 29 -24 0
22 11 24 0
14 19 15 0
-47 11 7 0
39 -46 -32 0
-18 48 3 0
-45 -14 -40 0
-8 -39 -27 0
-5 -17 41 0
29 -22 -26 0
-34 4 29 0
-26 44 38 0
-4 41 50 0
-7 41 -47 0
3 8 7 0
2 8 -37 0
4 -10 -14 0
11 -8 -28 0
19 -7 -41 0
1 15 24 0
27 -44 -15 0
49 -5 -24 0
9 -49 -25 0
18 -34 8 0
-11 30 40 0
-14 -7 -2 0
18 -29 -11 0
-2 -39 -30 0
1 31 5 0
-39 23 -11 0
33 28 -3 0
15 -24 23 0
-19 -21 30 0
-29 43 -35 0
-10 47 -15 0
3 -48 14 0
9 36 -41 0
-45 26 -16 0
-6 -33 7 0
19 -35 -3 0
-19 2 36 0
-17 -18 -6 0
-29 -35 32 0
6 14 -35 0
-11 -47 29 0
-23 -49 47 0
31 47 7 0
46 -3 -13 0
-40 10 12 0
-39 -28 -5 0
18 -48 -28 0
-28 -18 35 0
4 -38 46 0
-38 -4 -2 0
22 -42 32 0
-20 31 -44 0
-46 -18 -14 0
2 5 32 0
5 22 -3 0
16 4 41 0
6 48 18 0
-8 -28 -5 0
21 36 15 0
-35 22 -46 0
-25 17 13 0
-22 17 -38 0
-16 -39 -9 0
6 -34 43 0
-30 3 8 0
27 -39 -37 0
21 31 40 0
-47 6 29 0
4 -9 -35 0
5 -33 6 0
30 -40 13 0
-15 14 -48 0
-28 -12 26 0
-11 49 -34 0
6 47 27 0
30 -47 -9 0
4 42 39 0
30 9 18 0
-37 40 -45 0
-24 18 2 0
43 39 -19 0
17 -38 28 0
36 -34 -14 0
24 -50 -43 0
33 -27 -4 0
-49 -40 10 0
29 36 38 0
47 19 16 0
38 20 -32 0
36 16 -12 0
-10 41 -4 0
-28 41 44 0
-19 39 16 0
42 3 -40 0
3 -10 -16 0
14 25 33 0
13 9 -30 0
-15 41 6 0
8 -2 -26 0
-2 -49 -45 0
8 21 11 0
-17 42 44 0
38 -41 -35 0
26 -39 29 0
14 4 23 0
-28 -37 26 0
-20 -22 24 0
44 -11 -26 0
-43 -5 -12 0
