c Random CNF formula
p cnf 50 100
31 -1 -22 -44 -17 -34 -3 25 24 -42 45 -18 -5 15 41 -47 -8 -36 -21 2 0
5 36 19 39 -22 -25 -15 30 -12 -37 3 17 23 18 -31 -42 -29 11 1 47 0
-50 16 37 -40 -45 -44 -14 -29 8 3 30 2 -15 20 10 -13 5 -6 36 34 0
-20 -15 -17 -23 -41 -45 -33 4 27 1 -8 7 -3 30 -49 13 11 18 -46 -42 0
3 24 22 38 40 -15 -28 -14 -4 -5 49 -26 11 13 45 -2 36 -29 21 -41 0
-10 -47 7 -6 -27 9 -38 -40 16 5 -12 17 -23 4 -8 31 41 -49 46 21 0
42 47 -23 -21 -18 -17 46 -10 14 -9 -4 -12 37 8 5 25 15 3 48 24 0
-47 -29 -38 50 -16 -33 -13 43 -10 3 -31 -11 -4 2 -44 24 -42 37 32 49 0
-31 -29 -18 -14 -9 19 6 33 -45 -24 -13 39 -12 -37 10 40 -25 30 49 -3 0
29 -18 12 -17 32 -39 26 -49 -25 -11 -50 5 -30 34 13 -19 -14 7 20 48 0
2 15 40 5 23 -31 42 38 -1 25 9 -10 -49 30 46 -7 -41 -12 -6 -18 0
-32 8 -39 31 15 -21 49 -16 -13 -45 -46 -1 24 37 -14 -30 10 35 47 2 0
15 31 30 47 -3 23 38 -2 -48 -36 34 -6 5 43 -22 -29 -1 24 50 46 0
-47 6 50 -9 -29 17 -12 -15 -13 -37 4 -28 -38 -7 33 31 -46 -11 -19 -23 0
15 -24 49 -38 -34 18 -12 -14 -8 -46 -39 9 -28 -47 -50 20 48 16 -35 23 0
-29 -49 46 50 22 18 -28 -3 -41 -48 35 39 34 44 40 7 17 -23 36 10 0
-36 11 -10 -40 6 -22 -41 -21 34 47 -1 27 -18 49 42 -28 -7 -39 -4 -12 0
8 18 -24 39 -3 30 36 -1 -41 -19 -14 -50 -23 -6 -11 -10 -17 33 -27 -40 0
-38 -29 -31 -37 -42 32 27 -45 -47 -3 -14 -18 19 7 22 -24 -33 43 13 15 0
-7 -42 -22 13 -36 -37 29 49 -14 -2 -19 -43 -48 -44 35 12 -25 -23 41 46 0
-23 -32 -45 -10 -40 22 -34 37 -26 -20 38 12 25 -33 11 19 -21 44 -14 -13 0
11 43 46 -2 29 -1 -26 7 -4 27 -21 42 49 -47 15 -38 19 18 -33 10 0
-45 50 -47 -2 28 6 -42 23 -4 35 -20 -9 -41 13 19 -37 -16 22 40 18 0
-41 29 -49 40 -18 26 30 28 4 -1 -20 -6 -8 -27 48 21 -47 24 -12 -5 0
-30 28 41 44 -33 36 -17 47 -50 42 40 -26 -14 -48 24 -11 21 32 -16 -27 0
-46 -39 2 11 37 -49 30 21 35 -15 31 1 29 45 50 26 16 -20 -10 -5 0
-15 -45 28 -42 34 -13 -49 22 -41 5 1 20 -37 11 30 -43 40 47 -29 9 0
-50 36 -32 39 -25 12 -38 -6 -9 -11 33 -26 -10 -27 29 -37 40 41 44 46 0
48 -39 32 -44 -36 -41 -23 -35 -25 40 -47 27 -31 17 18 9 -46 38 5 -1 0
33 11 16 43 -48 28 -9 15 13 23 32 -39 -41 -7 -27 24 17 -2 3 49 0
-28 -6 -41 -23 -24 -14 38 -47 21 15 -39 -17 22 33 27 18 -8 -4 25 -35 0
-42 47 2 35 27 -7 -38 -44 29 -18 -5 -19 22 1 39 -6 50 -15 -12 30 0
15 -5 10 -46 31 26 24 27 18 1 -49 20 28 -43 -30 45 2 -38 17 -22 0
10 29 -23 47 -11 41 17 -50 -44 -33 40 -5 16 -21 1 20 -28 -43 -46 3 0
-41 -6 -40 -25 -9 -27 -32 38 -23 -26 43 10 7 -13 -5 24 37 14 11 22 0
-24 32 43 -38 -19 -20 49 -11 -14 10 -18 -27 -5 -30 -3 -9 -48 50 -47 13 0
-20 3 -47 42 11 -9 12 -14 -8 2 29 -25 -1 39 30 27 -5 -15 17 40 0
37 40 35 -23 10 -29 -16 14 -24 18 -39 -21 -22 8 43 -32 -30 15 7 3 0
15 -34 40 -5 -47 44 18 -6 -8 -7 -45 14 21 -24 37 25 -43 -36 22 -26 0
-50 -8 22 14 38 -17 -7 -19 -49 -3 -5 -20 -44 -31 6 46 23 28 45 -43 0
32 19 25 13 11 33 -14 23 17 45 -40 46 39 -21 -20 7 9 -29 -38 47 0
-34 -38 -3 9 -10 -13 -30 -11 -2 -44 1 -46 48 40 24 19 -15 -32 5 -7 0
-37 -34 48 17 -29 -24 41 22 25 14 -7 -16 -8 -36 23 3 -5 -30 45 -10 0
-33 -4 -27 -42 11 -17 -3 -20 25 41 49 50 -28 12 -22 -39 8 -14 -6 46 0
8 -13 19 -35 23 18 -14 -34 30 -50 40 -39 15 20 -7 -1 -17 28 -38 12 0
20 -16 21 39 -35 25 31 34 50 -9 19 12 -1 4 26 30 -24 -18 5 46 0
-26 -34 -14 -9 40 -42 -48 -22 29 44 45 -27 -6 11 -28 33 -7 -37 23 32 0
27 -15 32 -14 9 -3 -37 -12 -20 25 -49 13 18 -30 -47 -19 -46 -6 -4 -31 0
30 35 19 5 43 21 -37 -17 -34 -9 26 50 46 20 -13 11 14 -25 -16 48 0
45 2 36 -7 5 -25 39 -43 -41 -9 33 46 49 42 -16 48 31 -4 18 30 0
-6 -49 36 -12 -1 4 -40 48 45 33 -18 34 38 50 -46 -31 -7 -26 3 44 0
3 -7 -41 -27 -6 42 28 2 -22 -11 -45 34 30 36 1 46 50 -37 38 8 0
40 3 37 -22 5 -33 -28 -31 -50 30 27 7 43 -1 13 41 -24 42 12 11 0
49 5 -32 17 50 -24 -18 43 -31 -35 33 -30 12 -26 -11 22 -41 40 -42 -15 0
-24 -9 -18 -19 15 6 35 7 -44 33 37 47 -41 -27 32 4 -21 -46 -10 -26 0
-7 46 48 10 17 27 -50 -28 -11 39 38 -26 21 35 -24 -4 45 -16 -31 -49 0
42 -44 -39 7 -2 -35 14 -50 22 -38 -29 -12 -3 -24 -18 41 -49 -36 5 16 0
49 -22 -16 2 18 -43 -23 9 -6 48 -32 13 -40 7 19 33 -8 -12 42 39 0
-13 23 37 -9 28 -41 44 7 50 -38 -3 34 -29 -32 -4 -22 -39 15 -49 47 0
-12 -10 17 -29 -26 -13 21 -40 34 -25 -3 37 -35 -20 8 -15 31 -42 -11 -24 0
41 -18 -17 31 -30 -49 -24 34 -13 29 -27 -40 21 2 -1 7 42 25 33 20 0
23 7 -22 -36 -8 19 2 -46 -49 -30 14 -39 -15 47 45 -13 -33 -32 17 25 0
-29 39 -12 -1 -23 -38 -33 24 2 -14 17 31 13 37 20 -3 15 4 6 21 0
20 18 26 43 36 14 22 46 47 -29 12 10 27 -25 -11 30 -2 -41 -45 -40 0
-11 38 -48 -28 -49 8 45 -39 -13 -43 -4 44 -22 18 -34 -31 -7 -24 -40 27 0
36 26 -39 -47 23 -20 -4 48 -10 43 -12 40 9 2 -17 -15 1 -33 6 22 0
-39 -36 3 -34 -22 -4 -31 -12 -14 -26 -35 30 -44 42 -16 21 -19 28 -38 -27 0
-26 -33 39 -48 5 -34 -12 -45 -43 -11 -35 -4 7 44 2 -9 -1 23 -40 -41 0
-13 -47 44 25 -20 45 -31 -9 -2 19 7 8 -38 6 -22 50 -18 35 -42 5 0
-7 -34 8 -4 -18 20 -28 37 -30 45 -35 3 49 -32 1 -39 -40 -11 44 -17 0
-25 21 29 -32 40 49 28 44 -5 10 27 26 11 6 30 50 12 -42 3 -8 0
15 -21 12 -39 41 -9 19 -22 11 45 26 -28 -17 -23 3 50 -14 -24 38 44 0
23 -27 -8 -15 -29 5 -37 7 -21 30 -34 -47 -4 -19 6 -35 11 44 -32 -42 0
38 -37 -11 5 18 3 46 4 50 -23 9 -34 27 45 30 17 -25 -33 19 -22 0
-26 28 -3 33 -10 -11 -16 -44 -20 46 -30 8 49 -35 -32 -17 -18 -22 15 -27 0
33 34 32 -36 -45 29 14 3 -42 2 4 -12 -47 22 46 -25 44 -30 10 6 0
34 24 -26 9 41 1 32 7 44 39 8 -14 -33 -22 43 6 47 15 42 10 0
32 5 47 -36 33 -8 16 -31 -11 45 -43 -10 -1 -34 18 -29 -9 -17 -22 3 0
4 21 -8 -41 -45 29 -30 -20 -12 -24 50 -34 26 9 -39 -32 -2 -33 -19 43 0
-31 -22 -48 16 -18 13 4 -5 -35 -29 -33 24 43 -37 -14 7 27 39 -40 8 0
-25 -40 50 1 41 -4 17 -16 -49 -48 -5 12 -45 29 23 -22 -39 30 14 18 0
49 41 -45 -23 20 46 27 11 16 50 -26 28 -22 -40 43 25 1 -34 29 42 0
30 31 -50 -20 -32 -35 -22 -2 -8 48 23 7 16 9 18 -26 13 -5 -17 -41 0
-15 29 -19 4 14 -45 -49 -8 6 -3 25 16 35 -2 -33 -18 30 17 23 -28 0
1 33 10 21 43 20 28 46 -48 -12 -29 -36 2 7 34 32 45 50 42 -19 0
28 -45 40 -10 18 13 -11 29 -7 -39 -43 -16 -25 26 -37 23 -31 47 -17 -50 0
-24 18 -49 -21 22 -13 46 26 -12 27 7 -1 5 -14 -9 43 42 -41 -38 -50 0
29 -31 -47 24 45 -10 -39 -50 -9 27 -34 -23 -48 11 -43 -2 41 -38 -14 18 0
-35 38 1 26 41 25 -43 -23 10 -8 18 22 40 -49 -12 37 36 39 -9 6 0
7 -19 12 46 15 -37 6 -47 14 21 -3 8 -32 -25 -10 29 13 -44 20 35 0
-28 50 -23 -43 13 15 -22 31 -34 37 46 -40 29 -25 -5 -27 39 1 -42 -11 0
-50 -16 6 -34 -38 -48 -40 -12 -9 -47 43 -26 -35 11 -5 46 2 19 42 14 0
-15 1 31 23 8 49 -41 -6 46 26 -10 -17 42 -50 -20 19 -40 -47 11 35 0
-18 -42 14 16 -13 -25 19 5 -4 -2 -21 38 -24 12 11 23 -48 -44 -3 -39 0
24 -50 -44 29 49 -14 -20 -42 26 -2 15 5 -39 -16 25 -13 -40 36 45 -12 0
21 -29 3 23 37 9 41 -31 33 28 38 -19 26 48 -44 -46 2 -22 -11 39 0
-33 -27 -38 40 -35 5 -47 -21 -20 16 -41 28 48 -22 -9 -19 11 2 -26 42 0
14 4 41 -40 13 9 -3 27 -33 43 -37 -28 -10 6 -21 -17 -25 26 -38 47 0
-37 -3 7 26 47 -13 -33 35 30 5 11 31 -44 -43 -29 -49 -4 50 -42 -34 0
-35 19 12 -14 -50 -43 -16 -7 -15 -45 -30 -26 41 6 33 32 -8 18 -4 13 0
