c Random CNF formula
p cnf 160 640
-124 -61 80 0
153 16 51 0
-3 154 -54 0
63 46 29 0
-13 -99 -132 0
-137 120 -26 0
-104 102 -53 0
-83 128 -51 0
-117 136 65 0
107 77 146 0
141 135 -138 0
143 127 -6 0
-82 117 79 0
-120 -25 -74 0
155 -65 -17 0
81 -51 -87 0
28 2 95 0
101 148 143 0
-81 -28 44 0
129 130 54 0
-27 -110 -105 0
-139 74 -108 0
-70 -6 7 0
72 82 -46 0
-40 145 -3 0
33 109 57 0
117 -28 96 0
-105 78 93 0
-146 -12 -135 0
-32 68 12 0
-98 138 -1 0
69 45 100 0
27 -149 36 0
-146 -89 -123 0
67 42 40 0
86 -37 -60 0
-2 60 -139 0
-82 -46 -87 0
-28 76 68 0
-144 49 19 0
-87 74 -127 0
117 103 44 0
55 -140 126 0
90 74 -76 0
109 -113 -146 0
-39 -53 -135 0
-8 -10 70 0
-117 -147 -27 0
-123 -64 -27 0
48 -107 -7 0
-144 -32 -68 0
114 27 -153 0
45 16 -42 0
30 131 -86 0
33 -115 -37 0
67 8 -38 0
88 -103 -118 0
76 149 155 0
61 -44 -43 0
80 77 -50 0
-67 -159 -61 0
135 -2 60 0
-59 37 -2 0
85 102 48 0
153 -95 109 0
113 90 148 0
91 -17 99 0
-119 74 100 0
46 -18 76 0
-108 -120 -34 0
5 149 92 0
-15 -41 17 0
-142 135 -158 0
-149 -50 -1 0
-44 142 128 0
120 -87 1 0
76 10 -110 0
77 123 40 0
-128 -119 -142 0
127 -20 -93 0
101 -146 -132 0
151 -51 117 0
80 -12 -147 0
56 99 10 0
43 -120 87 0
29 103 -24 0
-19 -93 54 0
154 81 -89 0
55 149 -17 0
-122 -93 -64 0
-123 149 65 0
-143 -85 -94 0
-133 -74 68 0
-27 37 -147 0
-147 128 -52 0
149 -46 -120 0
-22 -4 34 0
90 -40 83 0
92 131 -82 0
29 -80 160 0
51 91 154 0
124 -59 97 0
3 120 -66 0
18 -52 -83 0
63 46 50 0
4 -61 40 0
22 77 -40 0
125 -17 -95 0
-47 -49 -2 0
-66 -113 -140 0
-132 19 -86 0
-5 -134 -78 0
-53 -45 -127 0
83 -111 72 0
-123 -12 159 0
109 18 156 0
61 -145 43 0
-26 -39 -76 0
131 115 -66 0
-62 138 -80 0
6 55 -135 0
-10 -111 -81 0
-38 -34 -26 0
-53 70 -154 0
140 -157 113 0
-20 -44 -78 0
-101 69 -23 0
150 65 142 0
48 134 -5 0
22 74 -21 0
152 -62 8 0
-83 4 -149 0
-126 155 26 0
-78 -116 -142 0
-64 -86 140 0
114 10 108 0
147 96 60 0
-114 -145 78 0
-43 65 4 0
-132 -147 -45 0
138 -41 -51 0
-50 -75 111 0
-47 -89 115 0
-23 16 -70 0
148 -107 43 0
60 -24 75 0
33 -128 8 0
26 34 157 0
113 97 -10 0
95 6 140 0
151 128 -60 0
146 98 -46 0
-55 84 74 0
-127 -112 153 0
-153 -117 -132 0
-46 -97 83 0
-58 132 -77 0
-3 120 -96 0
-118 -27 -139 0
115 91 -105 0
-28 24 -40 0
43 120 -155 0
3 40 -130 0
95 -158 -99 0
155 -154 -137 0
-46 69 -112 0
-68 -124 152 0
-118 -85 -94 0
149 25 -69 0
-129 9 -3 0
62 -19 2 0
-105 -109 48 0
-108 110 -148 0
123 144 97 0
-113 28 -141 0
131 -106 127 0
-150 -29 -149 0
50 -123 -154 0
-22 -81 88 0
63 73 120 0
-47 -85 -36 0
47 132 -105 0
52 76 -100 0
-76 140 -142 0
-11 104 69 0
147 -42 70 0
41 30 62 0
120 -141 76 0
-73 153 86 0
127 -29 56 0
32 -89 -99 0
-120 63 -92 0
-22 134 -114 0
127 -1 50 0
-131 -84 -41 0
15 -20 -39 0
-160 -2 107 0
108 -60 118 0
-92 -51 81 0
131 -57 59 0
-32 -58 40 0
146 106 123 0
90 118 -143 0
140 -29 -77 0
-52 74 142 0
106 8 60 0
4 119 13 0
-136 -99 24 0
122 73 -16 0
-38 68 -95 0
-24 -86 15 0
153 100 -98 0
-115 42 121 0
154 -135 151 0
51 42 24 0
-24 -25 -95 0
-56 127 3 0
-94 107 133 0
92 39 -131 0
-100 -99 -81 0
155 42 -41 0
44 71 -48 0
-152 -44 62 0
112 -146 -15 0
-17 24 121 0
150 32 -4 0
52 -138 -65 0
-131 -129 100 0
-52 -9 121 0
87 16 -47 0
-82 45 -128 0
48 72 -113 0
142 -69 132 0
-17 -24 9 0
-40 -87 41 0
-70 -38 85 0
-117 -1 -58 0
63 -60 -144 0
51 -126 108 0
131 -107 -38 0
-51 149 125 0
59 152 -155 0
-29 137 -97 0
101 -72 -151 0
25 -97 -26 0
26 -151 -150 0
-113 61 74 0
60 -89 -76 0
92 -135 51 0
154 -156 -141 0
-146 154 -95 0
-10 90 82 0
129 25 -2 0
146 10 41 0
55 118 138 0
-72 -126 111 0
105 -151 155 0
3 -6 -73 0
15 -95 -38 0
121 11 84 0
55 -123 -141 0
73 5 69 0
-106 79 -28 0
47 95 110 0
-132 104 135 0
127 85 138 0
137 13 26 0
98 -53 -74 0
106 -32 -102 0
19 -123 81 0
-18 120 -92 0
72 -46 31 0
-137 -12 -45 0
-153 -57 116 0
131 154 94 0
74 132 77 0
93 86 123 0
-145 27 15 0
133 72 8 0
23 -65 -141 0
145 110 73 0
22 139 115 0
-57 69 -141 0
-51 -127 109 0
46 -47 -127 0
96 -9 -3 0
-19 48 102 0
-52 87 -130 0
-131 -115 118 0
-80 89 -137 0
7 -147 63 0
-33 54 -132 0
10 -33 84 0
160 83 -118 0
-68 131 -3 0
37 -48 11 0
106 149 154 0
-148 -26 -43 0
-134 159 -18 0
-32 148 -87 0
140 109 8 0
88 -58 94 0
-100 87 -138 0
-34 133 -45 0
96 -155 73 0
58 8 -93 0
109 -140 -112 0
87 -121 -40 0
-64 75 114 0
-144 2 140 0
-71 -10 -81 0
-50 120 92 0
106 113 134 0
18 82 -23 0
83 -159 60 0
-119 -139 75 0
-59 91 -28 0
144 58 64 0
-114 -125 110 0
-150 20 13 0
1 75 65 0
-144 -34 2 0
-121 1 -67 0
-20 101 -69 0
-13 33 -15 0
104 -85 -96 0
87 80 -117 0
-7 -64 121 0
90 13 -95 0
139 107 -101 0
-43 107 133 0
-121 35 -97 0
-104 -106 68 0
22 25 -42 0
21 -85 9 0
39 70 -33 0
-10 84 35 0
-103 42 8 0
-72 73 142 0
62 -153 -120 0
9 -64 127 0
-97 -26 -91 0
66 151 -58 0
-109 98 130 0
155 -19 7 0
-59 61 -51 0
25 66 -51 0
-145 -48 103 0
-127 118 28 0
-67 -95 -38 0
5 58 -39 0
-103 -97 64 0
22 -146 -3 0
-82 -88 -74 0
94 -79 -120 0
-28 55 82 0
-65 22 69 0
144 112 110 0
130 75 -37 0
-121 116 -72 0
143 -90 -158 0
47 38 -85 0
-154 -153 41 0
-93 -115 152 0
-141 19 -91 0
-19 40 120 0
-16 -102 63 0
-4 -19 81 0
93 -39 -139 0
-90 149 104 0
102 40 58 0
124 -107 -69 0
-155 82 -19 0
-119 58 154 0
100 -108 94 0
57 -112 -123 0
-58 -15 146 0
-154 46 60 0
-38 52 109 0
150 -146 -65 0
-2 -160 -63 0
43 -94 9 0
156 82 97 0
6 -116 112 0
68 123 -110 0
110 21 69 0
51 -97 -56 0
12 28 -51 0
4 72 -88 0
44 -33 -78 0
121 99 -155 0
-24 130 83 0
-40 15 33 0
9 -131 2 0
45 144 92 0
-134 116 117 0
-86 60 154 0
-115 -49 -100 0
49 74 -68 0
136 22 -99 0
137 -141 10 0
-126 -75 44 0
-49 9 -54 0
-125 65 140 0
-69 -55 84 0
-80 106 -72 0
-6 -18 -124 0
62 63 -154 0
-75 -146 79 0
-118 154 36 0
-65 -151 130 0
-144 35 -145 0
92 79 101 0
-58 63 -151 0
-88 -105 34 0
39 25 -31 0
-150 85 -46 0
-41 90 127 0
-40 -65 -53 0
152 -7 -60 0
-131 147 -141 0
-94 -88 -110 0
14 -141 -57 0
-21 -121 33 0
44 58 -29 0
56 82 135 0
23 56 -128 0
-90 7 -116 0
74 8 -32 0
-141 -154 84 0
29 80 157 0
-98 152 -122 0
57 -47 146 0
72 135 -88 0
24 -61 119 0
-14 -31 -99 0
-4 -122 -56 0
-91 138 124 0
9 92 -21 0
55 126 -128 0
-82 13 139 0
-92 -2 -103 0
96 75 -160 0
22 -87 -109 0
-78 70 57 0
-131 53 133 0
-52 107 95 0
-82 -6 63 0
-22 -75 -26 0
-86 144 159 0
-122 -143 -16 0
88 -106 138 0
-72 -26 140 0
-73 -20 -51 0
-96 -104 -48 0
-65 -93 -139 0
13 -70 -52 0
-50 -110 -63 0
-94 -147 -45 0
98 -155 -42 0
112 -66 54 0
14 2 -110 0
31 -52 146 0
9 -79 -77 0
9 32 -153 0
-21 115 133 0
-150 17 -143 0
78 -110 52 0
46 -6 42 0
91 -156 -123 0
152 56 66 0
-98 -23 65 0
68 107 -72 0
102 -91 58 0
62 58 -154 0
-49 -12 -25 0
-43 -23 -131 0
-76 -44 74 0
87 129 -114 0
-64 -98 8 0
12 110 -45 0
35 -98 74 0
82 32 59 0
48 96 131 0
100 153 115 0
-79 84 14 0
56 -141 -139 0
57 62 -92 0
113 -115 -125 0
-38 -30 -104 0
145 66 -102 0
-30 44 -26 0
-75 128 -26 0
-118 -15 -140 0
-32 -117 43 0
-3 23 137 0
43 66 -97 0
9 100 48 0
105 -15 -123 0
45 -127 62 0
56 120 -57 0
-48 -18 136 0
4 19 27 0
24 117 -149 0
-115 -141 101 0
27 -141 -58 0
89 -151 104 0
-22 73 -131 0
17 78 117 0
56 -39 -57 0
151 -135 -21 0
-32 -8 -146 0
4 -11 80 0
-86 -160 89 0
-35 71 -88 0
-149 -110 102 0
51 132 -108 0
-3 33 113 0
-147 106 12 0
91 48 104 0
-159 -29 22 0
-26 -102 -147 0
143 -23 -148 0
-3 81 -113 0
149 -39 87 0
72 -10 -91 0
-144 -5 32 0
147 -57 100 0
-28 -92 32 0
101 -139 -154 0
-93 105 7 0
75 -42 -50 0
155 15 -5 0
46 60 -79 0
-90 -100 -4 0
-156 1 62 0
-50 -70 114 0
-99 -69 -78 0
-58 24 5 0
-152 -84 -13 0
-4 -147 115 0
123 5 22 0
73 -113 88 0
154 -16 -141 0
-9 -125 103 0
-125 70 -155 0
83 113 48 0
-30 -32 133 0
-62 -84 -45 0
-52 -57 68 0
74 -80 19 0
137 51 79 0
87 -61 -57 0
-1 -56 148 0
-150 -83 158 0
59 2 27 0
-56 61 -22 0
117 88 119 0
160 -4 -73 0
27 136 -22 0
-106 -125 -56 0
1 38 116 0
-24 123 79 0
-109 127 4 0
142 125 73 0
83 -108 5 0
-154 34 72 0
-131 64 84 0
-88 -108 -126 0
58 97 152 0
-2 60 83 0
159 -4 19 0
-160 61 -141 0
-36 90 88 0
-92 -50 68 0
-33 -117 -147 0
3 86 -102 0
17 -66 46 0
-93 -1 148 0
38 93 88 0
-122 130 66 0
-70 -49 150 0
41 40 29 0
129 133 -40 0
107 -9 51 0
157 -141 -20 0
48 -158 113 0
-140 -17 -112 0
51 -147 -90 0
-31 120 50 0
-123 111 56 0
36 61 -12 0
135 148 160 0
127 99 32 0
18 53 144 0
83 -124 109 0
-31 -134 42 0
-150 -57 -4 0
78 28 -137 0
150 -55 132 0
8 -109 123 0
152 28 -41 0
150 110 -138 0
-7 152 100 0
-50 -8 1 0
130 -159 79 0
-37 90 -114 0
159 33 -66 0
30 11 -25 0
-146 111 59 0
-135 -68 148 0
-117 35 148 0
-103 83 109 0
23 -158 63 0
-117 -72 -110 0
-13 159 61 0
-9 24 138 0
80 -160 104 0
26 -89 -37 0
154 97 127 0
-35 6 -159 0
-38 -4 78 0
-137 129 31 0
149 87 155 0
-73 -98 -143 0
79 -82 -87 0
149 101 21 0
160 74 43 0
-141 -42 16 0
67 -8 -60 0
-152 -128 64 0
6 25 67 0
120 -73 155 0
83 -56 107 0
-111 65 -160 0
80 -128 144 0
52 -147 61 0
62 136 -141 0
-91 24 -57 0
-77 93 -35 0
