c Random CNF formula
p cnf 80 340
28 37 6 0
77 40 27 0
31 21 9 0
-30 -3 60 0
38 -51 -15 0
78 11 -53 0
-70 44 -26 0
33 22 27 0
-1 -38 28 0
10 75 -31 0
-35 -63 12 0
-68 2 49 0
14 45 -23 0
59 -3 -13 0
58 78 -56 0
-52 62 59 0
-16 -20 70 0
71 -63 53 0
-56 75 40 0
-68 61 -36 0
5 -68 -6 0
-6 12 29 0
-76 53 -80 0
-77 15 42 0
-55 11 -57 0
-46 -30 13 0
39 -25 -38 0
-12 56 -53 0
-20 -16 -73 0
13 -27 -36 0
-39 -43 -71 0
-61 21 54 0
-61 3 41 0
-35 73 5 0
-6 25 -44 0
-77 -70 59 0
-63 -32 -8 0
-19 -38 7 0
-70 -49 -14 0
-7 -51 24 0
69 68 -22 0
-46 -50 40 0
70 79 46 0
75 -62 60 0
-26 -28 -75 0
-8 -19 -1 0
-28 43 -80 0
27 -8 43 0
-32 58 70 0
40 -3 34 0
-50 -16 46 0
-24 49 -46 0
-6 63 54 0
-50 -60 -48 0
-10 -45 44 0
42 32 -26 0
-27 -64 68 0
62 -45 44 0
-5 29 -60 0
-64 -31 19 0
62 47 -2 0
2 -28 78 0
64 -9 -17 0
-23 32 -30 0
-29 -73 -79 0
-77 14 -36 0
4 67 6 0
-46 -53 74 0
-26 48 -6 0
-64 -20 43 0
-1 73 79 0
57 -63 -2 0
-77 -75 27 0
70 19 26 0
56 75 33 0
-36 62 25 0
39 -23 -20 0
-24 -48 -8 0
56 47 -38 0
79 6 -41 0
46 -31 57 0
34 28 40 0
-29 -49 -63 0
69 -35 -62 0
-4 57 -49 0
38 76 80 0
31 63 46 0
61 -54 -47 0
-28 14 -13 0
8 57 -19 0
53 18 -80 0
17 -34 24 0
-12 14 78 0
-23 -21 -44 0
79 -30 -31 0
21 -5 60 0
-11 -44 55 0
-36 -50 30 0
7 23 13 0
-9 -32 79 0
50 49 -30 0
23 -31 62 0
-70 -39 -79 0
65 -39 -63 0
-29 52 1 0
53 -73 15 0
16 61 -77 0
40 20 16 0
13 -50 -68 0
54 72 80 0
-73 23 -51 0
16 -10 15 0
-5 -55 -44 0
-49 -39 63 0
-72 -51 -79 0
57 47 45 0
-2 -69 -18 0
-44 63 47 0
28 73 -69 0
-4 -11 -5 0
55 61 24 0
-34 -65 60 0
32 78 -47 0
-11 -60 -14 0
-2 27 29 0
55 -26 -30 0
-40 19 -61 0
59 -35 3 0
-63 -43 59 0
-66 64 54 0
40 -41 50 0
67 -60 31 0
-6 -22 74 0
38 58 67 0
-48 60 -4 0
71 59 -6 0
-58 -41 7 0
2 -9 -12 0
-23 29 -34 0
56 -74 -79 0
6 -63 5 0
-21 -71 -62 0
9 5 -61 0
74 -55 -47 0
40 -37 -49 0
-58 -57 -20 0
65 20 -75 0
-62 8 79 0
-76 -77 -39 0
27 52 -6 0
-6 -21 -28 0
-4 -49 -70 0
26 -50 31 0
80 53 -27 0
-33 -17 72 0
-62 35 -22 0
4 42 -38 0
76 41 38 0
27 73 -30 0
56 -71 77 0
7 42 36 0
80 62 -40 0
-73 60 -70 0
68 -54 69 0
-47 -69 -35 0
-8 4 6 0
79 24 42 0
18 -19 -66 0
-60 65 59 0
-60 76 -70 0
22 -40 9 0
-42 80 70 0
-69 -67 -20 0
-8 -29 -34 0
-25 45 5 0
72 23 -33 0
-52 -25 -43 0
-43 -59 -48 0
-50 14 -43 0
-45 -73 57 0
-47 -46 -52 0
76 -1 5 0
-34 63 31 0
-38 35 -70 0
11 54 37 0
-9 55 -37 0
-72 76 62 0
-25 80 26 0
76 -44 8 0
-44 46 -27 0
21 44 79 0
-16 17 52 0
27 46 -12 0
-46 -8 76 0
58 -27 -40 0
14 -47 42 0
37 31 48 0
-50 -67 21 0
47 -22 74 0
-71 67 58 0
4 53 -40 0
-29 -61 -51 0
3 18 -12 0
45 -67 23 0
-32 54 80 0
-66 -75 25 0
28 -2 6 0
-33 75 52 0
32 -74 -49 0
37 52 -25 0
16 -4 -40 0
77 67 51 0
-8 -10 51 0
-17 28 78 0
76 23 49 0
-9 -71 16 0
-11 63 58 0
-19 -17 -21 0
-77 -78 -9 0
-30 22 78 0
-26 49 -59 0
-27 -28 31 0
72 -15 -2 0
-79 75 -73 0
-9 -38 -65 0
-34 77 75 0
24 -11 40 0
65 -2 -20 0
-33 16 -77 0
-22 2 -68 0
-18 10 74 0
-2 43 -37 0
24 -9 26 0
-2 -21 -60 0
37 58 -80 0
-21 3 -32 0
-80 66 -47 0
33 8 28 0
25 63 13 0
77 -24 33 0
78 -76 -7 0
55 -16 -10 0
-33 -43 -68 0
37 57 -59 0
-37 27 40 0
4 -19 36 0
-57 77 56 0
68 -25 58 0
-7 -35 -10 0
-9 79 10 0
-59 64 22 0
-17 55 -29 0
-73 70 -67 0
-17 5 -30 0
33 19 -1 0
-76 -35 75 0
-18 1 -32 0
60 35 -48 0
-58 -38 -39 0
7 43 -46 0
59 49 7 0
-74 59 66 0
74 70 7 0
-68 -54 3 0
14 60 34 0
3 16 21 0
66 -65 -30 0
21 -33 -69 0
63 -6 68 0
5 51 2 0
-71 -65 11 0
11 -26 -73 0
3 15 -73 0
60 35 56 0
-9 51 63 0
-8 -6 33 0
-46 -43 -60 0
-33 52 38 0
-27 70 -10 0
-57 -21 -68 0
-61 13 15 0
-5 37 -42 0
14 -46 45 0
-44 16 51 0
-30 -38 -56 0
-35 -28 21 0
-40 -37 -20 0
35 -10 12 0
2 17 21 0
-65 -61 36 0
13 -58 3 0
-64 -72 68 0
57 44 -9 0
-24 -18 -57 0
-2 -10 -16 0
5 80 -13 0
-19 70 -51 0
61 -79 62 0
-80 -68 72 0
40 -37 16 0
14 -29 19 0
-70 12 -15 0
-69 70 34 0
-29 6 -15 0
-15 -52 -47 0
-22 -74 11 0
-35 25 -2 0
11 -30 58 0
-32 26 -52 0
23 -44 56 0
-26 -5 51 0
64 26 -8 0
-61 41 35 0
56 2 -31 0
-43 1 -22 0
74 21 20 0
-2 -44 33 0
23 -56 54 0
-56 -45 8 0
-76 59 36 0
55 29 68 0
65 -52 25 0
-6 51 -61 0
29 50 -58 0
-11 10 -23 0
11 -24 -78 0
-4 -8 -31 0
42 26 35 0
-28 5 -54 0
-24 -58 -52 0
63 67 -25 0
-40 -48 -20 0
71 -3 40 0
-33 -74 39 0
-37 -33 22 0
13 -49 -23 0
2 -60 -15 0
71 -11 -15 0
11 -36 2 0
44 -48 71 0
