c Random CNF formula
p cnf 100 425
79 61 42 0
-69 -76 49 0
-11 -14 -86 0
89 -70 48 0
74 -95 9 0
3 94 -63 0
-78 68 -19 0
-52 -29 -97 0
-99 89 72 0
27 -92 -11 0
-63 79 -16 0
-60 -38 83 0
32 -8 -54 0
-84 -7 75 0
80 8 73 0
84 24 58 0
1 -71 -91 0
58 -20 -41 0
-99 6 -64 0
-51 -50 59 0
-41 33 -61 0
-36 -81 14 0
26 28 -89 0
84 78 -52 0
-45 12 81 0
98 -47 -26 0
35 -25 -88 0
-4 -29 -23 0
-98 85 26 0
88 7 -71 0
39 -43 28 0
93 38 -18 0
-30 74 -80 0
-90 27 80 0
64 -60 27 0
-9 -78 50 0
-47 49 39 0
-59 -4 -57 0
-34 95 49 0
-7 42 22 0
-25 86 -90 0
63 -50 66 0
14 7 -69 0
41 26 57 0
48 45 17 0
-72 -13 -15 0
73 -19 -47 0
-53 -100 -78 0
96 1 37 0
67 56 51 0
-85 -22 4 0
66 91 53 0
-100 -70 -88 0
73 -44 8 0
4 20 81 0
34 -5 9 0
10 64 -28 0
84 -94 78 0
-49 13 75 0
1 -31 48 0
-7 -25 -88 0
-69 89 -38 0
27 46 -54 0
79 35 32 0
-45 -48 -74 0
38 -31 -41 0
82 -48 90 0
-73 -49 -74 0
-12 18 65 0
-85 -52 90 0
21 1 -14 0
-48 -2 21 0
92 68 16 0
42 -31 -37 0
74 -96 88 0
-58 98 -27 0
25 -22 77 0
9 -55 -28 0
85 79 83 0
-1 41 63 0
4 28 63 0
-52 73 60 0
39 27 10 0
-87 23 -9 0
37 -8 1 0
-86 -16 43 0
45 36 53 0
5 80 26 0
69 6 -86 0
-56 81 -93 0
-33 50 -88 0
-33 -50 -98 0
66 -89 33 0
74 -5 -46 0
84 66 -19 0
-85 86 -31 0
55 -12 87 0
-78 53 6 0
-94 58 -57 0
55 32 99 0
-74 4 -71 0
64 46 -14 0
72 -92 16 0
-16 24 -54 0
-8 -6 -92 0
-45 -75 68 0
66 68 80 0
56 -24 72 0
71 -75 -36 0
55 85 -94 0
-48 76 -37 0
-32 69 -29 0
6 -90 24 0
38 73 16 0
12 53 -64 0
15 61 30 0
96 19 -95 0
1 -53 -65 0
-7 31 -90 0
-31 26 -39 0
-23 64 84 0
35 -70 -100 0
-47 95 -37 0
-17 -49 -8 0
-100 -40 -66 0
-20 82 -64 0
97 14 -50 0
-80 17 98 0
-22 97 30 0
-10 -66 27 0
-42 16 -58 0
-60 20 -24 0
-19 -98 22 0
86 50 11 0
-30 12 83 0
97 36 85 0
69 -66 -55 0
-66 -76 13 0
7 61 -30 0
18 -3 -35 0
59 54 46 0
-90 10 64 0
94 61 -91 0
46 -86 18 0
72 48 14 0
-16 40 41 0
78 -24 45 0
-76 4 -12 0
-36 60 46 0
-1 76 38 0
30 72 98 0
-40 -44 -18 0
41 -9 -25 0
-85 96 -86 0
-6 -36 -19 0
-29 -82 77 0
28 -11 -23 0
57 80 69 0
13 -1 -28 0
-83 55 37 0
-22 86 12 0
-9 -48 -21 0
-27 -30 -52 0
-70 33 -11 0
17 -25 -38 0
56 85 1 0
-60 16 -53 0
46 36 54 0
-61 -24 -68 0
67 -57 36 0
-54 51 -28 0
97 -4 -25 0
49 92 46 0
-69 -87 -27 0
70 25 -93 0
-38 -62 37 0
72 -97 -10 0
-65 -96 -55 0
-33 19 84 0
26 11 17 0
53 45 -48 0
75 -93 -25 0
43 94 83 0
-71 -85 12 0
-72 56 -81 0
-91 60 9 0
9 -22 -87 0
-65 -55 -36 0
15 -57 -40 0
-91 68 38 0
-87 -50 98 0
18 47 67 0
-51 74 -42 0
-20 -61 90 0
36 61 18 0
82 63 -85 0
26 -77 -86 0
-57 68 28 0
81 74 9 0
50 32 93 0
-21 67 76 0
-22 -76 83 0
-68 -79 -67 0
60 -24 -87 0
-2 -40 -31 0
79 83 -28 0
-10 -67 -34 0
79 -5 -20 0
-63 68 31 0
-7 83 100 0
40 78 -46 0
-26 -86 -68 0
-79 -20 -4 0
88 62 -63 0
76 -38 -36 0
59 68 -48 0
14 76 -69 0
93 8 -61 0
-19 20 53 0
-97 7 95 0
69 1 33 0
-15 62 -17 0
-100 81 52 0
58 -67 91 0
-83 -85 93 0
65 -56 -89 0
-64 19 46 0
18 82 42 0
-29 -3 -2 0
97 -20 -1 0
96 -56 75 0
3 34 -10 0
29 -68 -91 0
-65 -33 66 0
-30 -32 83 0
51 83 -53 0
1 -10 -87 0
-3 -8 23 0
-70 -6 20 0
-26 79 -5 0
-13 -93 51 0
96 84 -17 0
-12 -25 82 0
-43 -18 -11 0
26 22 -6 0
-22 49 -26 0
-6 28 22 0
-79 59 74 0
62 -37 30 0
-72 -91 -37 0
17 -67 -4 0
90 -45 72 0
-59 77 82 0
19 78 -25 0
95 9 -17 0
-59 90 2 0
18 -1 39 0
-46 -72 83 0
-71 30 85 0
-85 48 12 0
-9 -53 98 0
-43 -31 58 0
53 87 -40 0
24 -28 25 0
-59 -28 -63 0
59 26 -37 0
-2 -36 77 0
-99 47 27 0
3 -4 -80 0
78 11 87 0
2 69 16 0
-10 68 -24 0
-27 -66 83 0
-54 -39 -36 0
-67 89 45 0
30 -59 55 0
-94 -37 92 0
19 44 94 0
65 -87 -88 0
-49 -92 12 0
54 82 -80 0
-48 72 78 0
57 -56 -42 0
-40 -67 50 0
27 89 90 0
84 -36 -32 0
98 -42 -26 0
-77 16 -51 0
-22 -94 -39 0
-100 56 53 0
72 -48 -15 0
72 -31 -82 0
-49 -80 75 0
-54 13 40 0
14 -74 -67 0
-85 88 27 0
-1 -49 -31 0
-19 45 -79 0
24 7 -58 0
95 11 -18 0
-7 97 -65 0
-92 -64 -83 0
26 -68 51 0
-8 16 -87 0
67 7 -80 0
35 -80 32 0
-21 -16 71 0
-32 -77 51 0
-2 35 32 0
-40 63 83 0
30 66 -42 0
51 64 90 0
-72 81 -100 0
-38 -65 -81 0
-14 36 -99 0
-84 55 -69 0
9 -48 99 0
-7 -64 -62 0
52 55 -68 0
43 99 8 0
-54 -43 -55 0
46 -97 -41 0
41 63 89 0
-92 1 -75 0
-91 99 -10 0
-34 -63 -66 0
12 66 21 0
-62 -27 52 0
-6 -44 -30 0
-48 -42 -53 0
42 95 98 0
57 83 -43 0
88 14 -4 0
84 -62 -74 0
42 -63 -58 0
72 -10 54 0
-54 -92 -38 0
69 -66 65 0
2 86 88 0
-1 -7 -47 0
89 -85 -14 0
-1 -10 -23 0
-60 41 26 0
-5 27 99 0
52 -44 -63 0
-28 -52 94 0
72 -86 51 0
57 69 -2 0
20 65 83 0
16 -93 61 0
-10 -15 9 0
-54 -89 92 0
-51 16 -21 0
-66 -79 -21 0
-79 -84 13 0
45 96 87 0
28 55 75 0
96 -15 49 0
-32 6 -96 0
-16 40 -46 0
-69 47 -29 0
47 -91 -93 0
-15 -14 -4 0
-41 -59 76 0
55 -90 -62 0
78 30 -50 0
20 -86 77 0
21 -41 -97 0
-38 -30 1 0
-98 8 -85 0
-70 32 50 0
-91 -17 43 0
-39 78 34 0
-16 -15 97 0
82 -70 -65 0
-60 -39 35 0
-66 47 -12 0
44 -45 95 0
67 -21 37 0
-29 26 -74 0
86 29 5 0
-13 -74 26 0
-28 -79 -40 0
-88 68 75 0
24 -57 -66 0
6 -59 -44 0
79 5 14 0
73 38 -27 0
33 -76 -44 0
-62 -40 23 0
19 -98 82 0
-69 66 -86 0
51 -97 14 0
16 -55 22 0
-14 -92 -73 0
65 -22 -13 0
80 12 -82 0
95 -60 34 0
1 74 -60 0
-67 -59 10 0
-23 92 45 0
-84 61 57 0
30 18 65 0
-21 26 -32 0
-83 -58 -60 0
-44 -100 97 0
-58 66 86 0
-87 60 13 0
-63 -29 86 0
92 -75 -71 0
78 -39 -42 0
58 -50 17 0
46 -70 51 0
-44 1 -46 0
66 4 -81 0
-78 -1 90 0
-67 61 21 0
-54 -63 82 0
74 -99 -2 0
-4 34 -62 0
40 -74 14 0
95 -66 14 0
36 -56 -4 0
7 -10 82 0
43 -80 2 0
