c Random CNF formula
p cnf 80 340
-45 -68 -4 0
-22 -70 1 0
-47 -71 -45 0
-17 -65 -70 0
-51 64 59 0
80 65 32 0
19 -55 -15 0
-33 24 -49 0
59 -42 -67 0
16 26 59 0
-60 66 5 0
-9 -25 27 0
74 -32 -36 0
-2 -72 42 0
-8 -60 29 0
-77 -12 -33 0
28 -78 -34 0
-45 30 -69 0
32 9 11 0
49 -8 42 0
8 -17 -30 0
3 -60 -31 0
41 10 62 0
-56 -47 65 0
23 60 -32 0
28 -63 -12 0
66 63 5 0
63 -68 -60 0
-18 -38 72 0
-15 43 -39 0
-44 -10 -55 0
-9 -49 -5 0
60 -55 2 0
-37 76 -66 0
-45 9 27 0
69 -64 33 0
-34 -55 79 0
-15 -21 36 0
52 37 8 0
1 -34 58 0
9 -28 -65 0
20 -36 -50 0
5 56 -41 0
61 -27 67 0
52 15 -44 0
8 12 21 0
26 34 68 0
63 26 -31 0
-58 78 -80 0
38 -20 73 0
58 -53 21 0
-21 -8 44 0
-9 42 25 0
-13 80 73 0
44 -12 2 0
27 43 -60 0
63 -26 42 0
-61 -47 71 0
78 -59 45 0
10 -22 68 0
1 -50 -18 0
26 -75 73 0
35 34 4 0
-9 75 5 0
43 -79 74 0
-16 -52 -27 0
79 -73 -70 0
41 -20 17 0
8 -68 66 0
-31 -77 -73 0
73 -26 -32 0
71 -51 8 0
-75 54 -20 0
-38 40 53 0
31 14 -54 0
-4 55 -61 0
7 -57 -19 0
5 51 -2 0
-75 35 20 0
3 48 -45 0
-66 54 36 0
-58 -5 3 0
-55 -3 70 0
22 -13 3 0
57 37 60 0
-57 -41 25 0
76 14 -18 0
28 -38 -58 0
7 -50 36 0
6 63 -62 0
28 25 12 0
-72 -5 20 0
71 26 21 0
-43 13 76 0
-63 -76 -14 0
4 21 -44 0
-72 52 -25 0
36 -20 26 0
31 30 16 0
-32 -5 -35 0
-51 41 -70 0
68 56 -47 0
69 6 4 0
33 5 -54 0
-72 24 -8 0
-26 47 -80 0
-70 -12 -62 0
-8 -77 -22 0
34 19 -47 0
44 -31 3 0
1 -52 63 0
-25 -29 -68 0
-9 -28 55 0
75 -42 20 0
-24 -37 52 0
48 -4 38 0
22 -2 -69 0
52 -14 -37 0
66 64 -60 0
28 44 -62 0
64 24 -10 0
23 -50 -65 0
-69 61 -43 0
-39 -22 43 0
15 -36 74 0
19 68 49 0
-17 75 79 0
9 50 -27 0
-61 -6 78 0
-9 64 27 0
-67 52 -37 0
3 -48 17 0
62 -53 -80 0
48 -60 -50 0
51 25 -15 0
-15 59 76 0
18 -39 50 0
79 4 -16 0
-6 -28 45 0
-67 -71 78 0
-29 -56 41 0
4 -38 42 0
-32 76 -61 0
67 1 -74 0
-12 49 -34 0
-21 -48 -37 0
-45 -38 15 0
-16 6 -21 0
25 17 51 0
13 -28 25 0
4 75 -38 0
21 -6 33 0
25 -77 -37 0
-72 -50 25 0
50 -5 13 0
41 -5 -19 0
55 39 -28 0
-35 57 77 0
-24 46 4 0
38 -75 62 0
-12 40 -5 0
-46 -40 -56 0
61 35 21 0
-5 -59 80 0
20 -49 6 0
11 -62 13 0
-62 60 -46 0
35 46 -69 0
20 11 -31 0
-59 28 -36 0
-61 -72 17 0
-30 67 15 0
-68 39 -55 0
40 22 53 0
-13 77 -67 0
-1 31 41 0
-50 16 29 0
76 73 78 0
52 76 -9 0
46 -63 23 0
-55 49 52 0
-57 -19 26 0
29 53 -61 0
-27 -78 -23 0
-59 51 61 0
-2 60 22 0
-36 -66 -75 0
2 22 -62 0
-35 -72 -53 0
-21 70 -78 0
-42 28 -71 0
9 -29 -30 0
-74 64 51 0
28 -15 -32 0
-80 -40 46 0
-4 -11 -32 0
75 -46 70 0
-57 76 -4 0
-4 -74 76 0
65 6 53 0
-16 20 -23 0
-34 26 -15 0
74 -48 -45 0
-7 73 -29 0
-35 79 -78 0
42 25 -32 0
-19 42 13 0
38 -13 78 0
45 -2 -7 0
35 -78 23 0
60 -18 -11 0
-5 -27 50 0
-77 34 -6 0
28 -50 4 0
26 -60 53 0
75 49 -15 0
76 78 14 0
-57 13 -6 0
-76 5 68 0
-48 -54 -13 0
70 45 -16 0
-2 -53 -28 0
-11 61 -41 0
-38 -55 -68 0
-6 -15 -1 0
-74 7 14 0
12 -50 61 0
62 56 -51 0
-10 -60 -11 0
36 9 -8 0
79 3 -74 0
-45 -58 9 0
60 39 -40 0
-11 -66 -54 0
72 66 -15 0
-65 67 5 0
38 -16 -17 0
26 -67 38 0
-15 -64 -63 0
49 -64 5 0
-22 -31 19 0
-37 -34 -55 0
19 39 -49 0
46 -21 13 0
-32 26 72 0
29 -75 -7 0
35 74 -27 0
40 44 37 0
-61 55 -46 0
75 -21 -8 0
-14 -43 28 0
-67 -59 43 0
42 -44 54 0
-61 -11 25 0
42 40 -73 0
70 -59 39 0
28 -21 52 0
45 22 -80 0
-40 -72 -46 0
-52 77 33 0
-22 30 46 0
23 73 -38 0
7 -39 -71 0
69 61 39 0
4 -66 -13 0
-8 -76 -61 0
-45 -30 64 0
13 29 40 0
-70 -21 56 0
20 -42 -58 0
-45 -47 15 0
61 -13 -33 0
19 26 5 0
-79 38 51 0
13 42 -12 0
-6 -48 75 0
-78 -15 37 0
77 -8 22 0
-40 -66 45 0
-17 30 -52 0
50 -65 69 0
-28 -66 20 0
14 -17 -23 0
1 -9 30 0
-55 -29 -75 0
-78 12 -31 0
27 -18 54 0
-56 80 -22 0
-60 -71 -78 0
77 -40 -63 0
-18 -77 68 0
17 -27 70 0
39 -21 19 0
35 61 63 0
5 -8 22 0
-25 -48 26 0
15 73 -77 0
6 52 -23 0
-17 23 5 0
-9 -79 -37 0
32 -47 -55 0
1 3 63 0
-59 -57 -70 0
42 73 38 0
1 -32 66 0
78 -3 16 0
-40 -21 78 0
54 -30 -70 0
-55 45 -74 0
-54 -55 36 0
-38 47 -78 0
36 70 41 0
-45 53 71 0
-38 66 35 0
73 -23 -35 0
52 -16 -77 0
-51 3 -24 0
-71 -47 -34 0
25 -13 37 0
-58 54 53 0
-10 -25 29 0
7 -52 -58 0
-22 -29 -43 0
-44 11 -26 0
-4 -8 42 0
49 77 -52 0
56 -73 28 0
70 72 20 0
61 26 29 0
-61 16 60 0
-69 10 -42 0
-68 -49 61 0
-64 -14 -58 0
11 -20 -78 0
-53 27 21 0
33 31 -71 0
-52 50 -41 0
-1 51 7 0
-12 -53 58 0
6 -29 -62 0
