c Random CNF formula
p cnf 300 1000
5 217 145 0
-109 -236 -189 0
-241 245 -29 0
-240 -116 -36 0
240 -135 -48 0
-280 117 213 0
-161 254 -108 0
-268 -172 60 0
-117 -95 2 0
176 -35 -12 0
-101 249 -162 0
114 34 93 0
-286 -8 -150 0
-26 47 97 0
-240 -244 -124 0
-13 -92 -107 0
-210 -26 284 0
-266 -92 65 0
207 250 -64 0
277 -221 -19 0
-261 158 -241 0
-212 198 -160 0
-198 209 -120 0
288 299 187 0
-3 229 -105 0
38 -74 -259 0
-50 -234 273 0
221 -281 111 0
24 -123 -264 0
-269 -123 39 0
23 3 211 0
-49 296 -101 0
-162 -196 14 0
184 -45 24 0
260 209 -15 0
118 -218 21 0
-286 53 -144 0
-287 180 204 0
163 -263 -134 0
-179 49 72 0
162 -206 -284 0
-298 -106 147 0
153 163 244 0
-106 -103 69 0
49 300 -67 0
136 -2 -91 0
-153 291 -242 0
159 95 -207 0
8 -187 139 0
95 -235 -18 0
-25 29 -251 0
141 -13 -210 0
74 -95 -58 0
-279 -64 267 0
-179 108 -158 0
6 -238 267 0
15 -131 62 0
-2 -278 196 0
55 -1 -196 0
117 291 8 0
162 130 153 0
-260 244 154 0
-167 -221 -243 0
278 -73 -5 0
-57 186 -247 0
-240 103 -241 0
-250 -35 96 0
73 136 -297 0
152 271 236 0
210 -160 -134 0
-35 -160 70 0
35 -104 -7 0
265 294 -237 0
28 268 286 0
-33 263 -167 0
290 -264 -47 0
-118 7 -51 0
23 256 279 0
-147 298 69 0
133 273 24 0
-141 -272 -244 0
-170 -223 226 0
-131 -74 9 0
-263 156 -195 0
173 259 150 0
-154 -236 -163 0
118 -81 252 0
-241 63 -121 0
279 69 95 0
-11 -239 -270 0
6 52 -189 0
-116 133 169 0
201 206 2 0
28 38 8 0
-49 292 -199 0
-132 28 80 0
-58 109 -2 0
-118 268 -201 0
-198 -123 60 0
46 34 134 0
-162 -30 -16 0
-97 244 269 0
-203 38 -268 0
48 125 -290 0
-298 -57 255 0
97 13 122 0
43 83 275 0
-191 69 196 0
-208 -97 -116 0
228 -147 179 0
122 -43 -47 0
248 151 233 0
215 28 -25 0
-55 162 -181 0
25 -236 -285 0
17 -242 231 0
-99 -292 -299 0
249 -79 -269 0
241 -255 -162 0
118 -57 51 0
104 -89 -113 0
295 221 278 0
-90 128 7 0
63 -174 222 0
-130 236 19 0
20 145 -54 0
103 -70 197 0
153 -25 -218 0
196 -100 162 0
-203 120 -108 0
-92 -3 -108 0
-91 -289 6 0
-71 89 -106 0
114 125 169 0
-101 -222 230 0
-47 -51 271 0
85 -166 -247 0
132 216 266 0
158 261 -147 0
-96 285 -77 0
-88 173 222 0
-149 253 -97 0
-253 179 -57 0
129 34 27 0
-93 -173 277 0
165 30 153 0
-7 221 255 0
-278 300 43 0
-201 -226 43 0
75 270 -259 0
51 -158 59 0
289 300 35 0
32 -275 43 0
-153 129 -6 0
222 16 184 0
-107 160 99 0
129 209 -148 0
-101 -255 -283 0
275 245 134 0
-225 22 -2 0
158 -226 -13 0
-125 -69 -269 0
171 74 -213 0
-270 -67 -132 0
-169 -95 -273 0
273 -66 -248 0
140 -15 -86 0
-272 -56 103 0
-288 204 258 0
152 -53 -205 0
-116 129 118 0
-281 -199 167 0
180 -184 -140 0
129 -149 -130 0
130 -138 268 0
38 141 -280 0
-15 -295 -23 0
131 210 297 0
249 190 31 0
-88 164 258 0
-178 89 -40 0
-198 5 103 0
-26 -90 -28 0
-167 293 224 0
200 297 258 0
-286 -179 281 0
122 216 -266 0
-130 -250 -13 0
158 196 200 0
-201 -221 -139 0
142 300 224 0
191 210 124 0
170 199 -187 0
218 285 -74 0
-284 -36 277 0
-150 110 122 0
-170 262 146 0
249 135 203 0
245 287 27 0
-95 -252 44 0
-55 -161 -270 0
-28 -2 257 0
-98 -12 217 0
-229 280 59 0
-210 220 215 0
-269 280 270 0
19 -270 281 0
73 -179 -93 0
3 13 -44 0
-270 87 90 0
170 -111 166 0
299 76 254 0
-151 -300 154 0
234 -138 -224 0
36 -257 211 0
253 202 -170 0
-131 137 -97 0
77 203 18 0
-275 -33 273 0
141 -43 -80 0
-30 59 -141 0
-182 252 -103 0
-280 -293 248 0
178 -183 -57 0
-285 -254 129 0
-93 249 -26 0
-278 127 97 0
-36 250 117 0
-53 259 5 0
-32 220 204 0
25 208 282 0
94 -11 70 0
293 57 147 0
-133 280 -62 0
-297 -294 -109 0
67 226 106 0
-57 157 -41 0
230 -154 -195 0
-248 -55 -11 0
212 -286 -198 0
-134 -60 -22 0
242 -130 196 0
214 -73 -38 0
79 66 -278 0
-55 38 163 0
-164 -230 196 0
207 187 135 0
-291 253 -115 0
195 -115 234 0
-81 43 -137 0
232 134 -21 0
81 135 -280 0
-3 156 -30 0
225 -11 255 0
-215 195 -118 0
-52 183 99 0
-227 234 229 0
-193 73 -184 0
24 -300 -264 0
-130 38 131 0
264 -167 -13 0
-171 132 84 0
-242 281 249 0
-4 195 68 0
-283 103 114 0
273 32 -252 0
141 -160 274 0
-103 -55 143 0
-35 115 296 0
-43 216 96 0
-68 -116 -32 0
44 175 195 0
-197 -296 68 0
-168 -71 111 0
256 -4 -274 0
-53 281 -110 0
-47 -129 28 0
240 224 188 0
267 -63 -100 0
127 149 138 0
66 -126 -48 0
-213 -78 -46 0
-56 -37 -86 0
192 -293 154 0
142 -237 53 0
-172 -177 -65 0
-200 296 -203 0
194 217 -298 0
-22 59 -127 0
-265 -194 -154 0
118 173 213 0
-103 90 -97 0
245 -80 84 0
292 -218 -277 0
-205 180 191 0
-197 -290 123 0
240 5 -83 0
137 58 -147 0
25 253 177 0
-272 -151 106 0
-109 232 -188 0
146 49 252 0
49 28 290 0
-39 -296 -299 0
-261 -154 97 0
-225 130 86 0
-180 -273 -2 0
-295 89 -19 0
-74 276 -77 0
251 -109 -238 0
-162 289 -193 0
20 28 273 0
54 107 -237 0
-208 -14 228 0
156 248 -150 0
62 45 -36 0
-3 87 -70 0
163 -40 -34 0
-97 225 -122 0
-203 -256 -267 0
-218 -121 89 0
298 77 14 0
163 -293 -68 0
222 -232 -25 0
235 163 -254 0
228 279 -94 0
-267 174 -242 0
-117 119 -127 0
43 -3 213 0
-57 -78 -289 0
-132 -250 212 0
-13 231 119 0
-180 -57 73 0
-139 -56 -220 0
-7 190 -143 0
140 -74 -238 0
-195 261 -135 0
107 150 -90 0
-279 -282 176 0
268 -120 3 0
-193 144 -3 0
-263 -142 -102 0
-201 -215 -81 0
18 155 -92 0
147 185 150 0
-6 -283 151 0
-131 134 -1 0
11 -16 -87 0
-89 176 -47 0
76 184 -25 0
-288 203 97 0
259 -241 114 0
-212 -132 -139 0
-214 157 248 0
-154 -208 -284 0
276 -77 -107 0
-132 87 261 0
283 262 201 0
250 -55 -86 0
43 -150 -233 0
-86 -39 142 0
-118 -153 -191 0
14 262 160 0
256 -248 -22 0
-78 -240 -135 0
-280 -270 -1 0
-47 215 -79 0
250 -106 29 0
200 118 156 0
214 172 -122 0
-100 -52 198 0
-216 190 198 0
-66 -142 118 0
-30 -172 3 0
38 23 91 0
-232 28 -50 0
294 255 -289 0
-11 -261 -51 0
124 267 -130 0
234 -230 -66 0
-90 165 -43 0
-194 -80 58 0
207 144 192 0
-19 68 169 0
-220 -158 -295 0
-81 -55 275 0
-69 21 -39 0
-2 54 203 0
11 128 187 0
253 -211 63 0
219 231 -19 0
-24 137 -149 0
195 224 277 0
189 -77 188 0
-155 -85 -158 0
-202 129 256 0
222 298 -213 0
-71 269 -141 0
-97 199 -265 0
-121 -227 237 0
59 167 105 0
-108 -275 209 0
134 123 145 0
-59 265 -262 0
141 213 25 0
-109 -127 -30 0
-158 286 180 0
12 -226 172 0
-122 -14 -79 0
-32 -199 138 0
280 276 224 0
89 -23 281 0
-139 123 105 0
136 -271 -150 0
21 2 -8 0
-9 -103 248 0
43 193 -89 0
-74 -142 110 0
240 168 204 0
-72 -15 222 0
262 -15 -45 0
236 -256 111 0
83 100 -22 0
-43 -214 -250 0
-73 -291 -257 0
-280 -85 -193 0
97 65 -59 0
-280 -22 -72 0
271 166 116 0
231 -118 -273 0
-165 -36 -182 0
274 178 23 0
-123 124 16 0
-174 -179 -36 0
-220 -284 112 0
94 24 -239 0
42 -241 174 0
27 -274 187 0
-298 44 -53 0
106 -97 173 0
211 -171 -90 0
-188 171 288 0
141 -16 -210 0
262 -195 -84 0
-238 -170 130 0
-200 186 -147 0
149 219 140 0
-151 -83 -220 0
59 -273 -48 0
108 -166 51 0
285 167 70 0
46 -185 -133 0
-244 106 5 0
-225 -285 213 0
-73 -186 -257 0
104 -115 -91 0
-296 162 -82 0
-25 294 -178 0
-31 -151 251 0
16 46 -58 0
84 254 204 0
-135 -245 171 0
159 289 -238 0
-100 -165 -286 0
-32 -209 3 0
133 -106 98 0
-62 211 180 0
243 173 -140 0
183 75 51 0
-268 -66 -255 0
273 -80 104 0
247 123 134 0
209 247 -4 0
187 -186 -227 0
229 2 172 0
-134 -31 278 0
-271 -148 68 0
166 53 260 0
139 -279 -168 0
191 144 212 0
-65 106 148 0
-263 -67 155 0
66 -181 -246 0
-284 -163 -11 0
-30 -56 -13 0
30 -226 -263 0
11 -248 -53 0
55 106 45 0
64 -71 -139 0
-66 -289 26 0
-14 -145 -226 0
73 -138 3 0
-248 140 242 0
230 278 123 0
179 76 279 0
-73 -176 123 0
-269 -161 172 0
-246 -38 107 0
-127 -1 92 0
291 119 205 0
58 199 -48 0
-149 -76 -123 0
-182 12 -103 0
-181 -260 -66 0
-26 275 -151 0
-78 -134 -140 0
267 114 -247 0
-219 167 269 0
-228 267 -73 0
-126 -102 -240 0
94 71 220 0
95 -247 64 0
299 -102 113 0
114 -125 111 0
-91 -53 65 0
-262 131 -136 0
-171 -43 -5 0
-62 -226 243 0
76 118 75 0
-158 293 -31 0
98 -263 32 0
246 -167 6 0
137 -160 -13 0
101 265 -206 0
234 -31 192 0
-51 -246 297 0
193 222 127 0
-34 76 55 0
-4 236 230 0
32 7 -73 0
-78 -138 -293 0
285 -127 -149 0
-68 210 -10 0
15 227 123 0
295 -171 97 0
-190 -216 14 0
-114 -241 250 0
299 -284 281 0
236 85 -247 0
42 215 -286 0
-139 -98 215 0
-299 -37 -218 0
287 111 -178 0
269 -56 251 0
-144 138 -45 0
8 218 -231 0
284 -110 -150 0
-249 -137 105 0
-50 -248 188 0
54 130 -142 0
78 13 -102 0
191 110 -10 0
258 -34 -199 0
124 193 -204 0
138 299 -111 0
299 -234 -8 0
-192 -64 -131 0
-213 285 119 0
-170 -47 -189 0
192 -13 -110 0
71 -131 -38 0
-60 70 87 0
96 233 69 0
-194 234 -147 0
-213 -31 -225 0
-264 -205 -219 0
53 159 -197 0
-58 153 -40 0
124 -80 49 0
210 283 37 0
-234 -2 -134 0
-24 -147 -176 0
-235 -193 87 0
131 -155 -188 0
197 -25 145 0
266 167 -300 0
-12 -284 -174 0
255 145 -127 0
19 32 221 0
31 21 -122 0
-75 51 -142 0
198 250 218 0
-19 -165 20 0
-85 70 62 0
246 -213 190 0
1 -70 -84 0
260 65 3 0
145 -253 -100 0
188 -90 -163 0
116 130 14 0
-132 273 -221 0
-29 58 217 0
-82 -240 -112 0
-80 216 -185 0
170 189 133 0
23 -286 -124 0
-266 -44 261 0
126 79 -227 0
-58 184 -244 0
93 182 -258 0
-268 -175 -281 0
-222 130 176 0
173 68 58 0
145 75 189 0
274 -119 123 0
298 26 -144 0
-261 -47 -282 0
-7 -136 -171 0
8 -184 126 0
-26 -89 -255 0
-62 144 210 0
120 -64 -243 0
82 243 263 0
251 -53 209 0
82 270 -146 0
-273 -1 228 0
176 75 218 0
198 -13 133 0
-10 -63 -158 0
-216 149 4 0
138 -212 279 0
133 125 300 0
-32 16 -108 0
-13 -123 155 0
188 -213 191 0
-172 -166 -138 0
-161 97 125 0
-126 -229 -53 0
254 -100 -17 0
-34 -300 7 0
-168 144 173 0
144 -124 107 0
-148 -233 216 0
-267 -160 294 0
-23 29 283 0
-120 227 99 0
-37 264 17 0
88 -205 176 0
-252 38 203 0
-252 112 59 0
31 -239 -164 0
88 211 285 0
-169 -102 272 0
267 -219 9 0
260 222 -87 0
-12 -70 -182 0
-188 121 77 0
-205 182 -16 0
-279 172 149 0
-31 -297 -180 0
-274 225 87 0
-74 -96 130 0
154 -229 271 0
170 219 -162 0
193 237 -238 0
-300 -112 -42 0
109 263 -9 0
34 210 -166 0
-217 -95 -64 0
-296 -278 34 0
11 -20 110 0
27 -273 -130 0
-67 198 -103 0
211 -142 8 0
98 30 -57 0
-147 -56 146 0
163 29 156 0
87 -160 22 0
56 -124 -118 0
-32 -92 200 0
98 67 -215 0
-265 168 -215 0
288 -206 75 0
-177 -129 183 0
-148 -180 62 0
123 85 -227 0
7 277 -31 0
-36 -94 -113 0
79 -248 -227 0
-177 98 -175 0
-295 -42 184 0
249 25 292 0
-288 -221 -237 0
-86 189 57 0
-153 -233 -90 0
-272 50 -56 0
267 128 141 0
-55 -10 7 0
-69 290 -217 0
-95 -219 292 0
28 -112 83 0
121 -135 105 0
-53 -123 102 0
171 110 -228 0
95 -237 -129 0
154 -146 -86 0
254 -71 -279 0
-61 164 248 0
258 55 231 0
-82 -49 -175 0
-177 149 65 0
261 198 120 0
-57 42 -233 0
230 -92 -94 0
-63 -147 203 0
-87 -245 -163 0
-36 -225 -21 0
-87 -83 -47 0
46 -159 -257 0
182 -77 -147 0
-299 -31 123 0
-37 -146 23 0
265 119 23 0
229 69 199 0
244 -82 -137 0
159 178 -297 0
247 134 37 0
-130 -230 144 0
-18 23 7 0
267 -129 74 0
-222 -295 -218 0
191 132 209 0
168 -119 -188 0
52 93 180 0
112 29 169 0
89 242 -190 0
211 -261 127 0
-64 -91 217 0
260 23 211 0
-78 -296 286 0
-285 -173 -156 0
-167 -240 -86 0
24 132 -277 0
-172 -283 140 0
-279 172 -112 0
-206 -128 -63 0
71 -68 -38 0
184 136 -286 0
-39 -109 -233 0
-4 189 -200 0
-94 -222 101 0
293 235 -192 0
-129 -263 -54 0
-286 116 -95 0
263 -91 55 0
157 -214 246 0
-10 215 -170 0
166 -284 -53 0
11 -188 29 0
-227 -134 132 0
-177 -46 56 0
51 -99 172 0
-123 70 -128 0
237 -288 -29 0
158 -40 46 0
101 -6 25 0
-43 -146 271 0
125 207 141 0
-71 -286 53 0
-227 -58 -64 0
-15 -105 161 0
-45 181 -169 0
-41 -76 3 0
-300 165 39 0
-279 199 -110 0
-114 -273 -269 0
3 105 -79 0
287 -172 100 0
-139 -147 200 0
220 -127 244 0
141 -273 -62 0
-95 39 -69 0
-297 -214 235 0
277 299 -166 0
-31 -256 117 0
-282 -240 -198 0
300 280 86 0
95 -249 -120 0
-221 -149 -205 0
42 -20 -284 0
-280 -109 -14 0
-184 -46 -151 0
173 98 13 0
120 267 265 0
53 127 243 0
-66 -240 -285 0
250 -79 -48 0
-42 -39 -197 0
21 187 238 0
280 -248 145 0
-258 -93 -89 0
141 146 207 0
-294 247 -271 0
-11 24 279 0
13 10 218 0
144 243 166 0
-178 142 148 0
258 -119 281 0
82 260 -94 0
-200 24 -210 0
22 -265 243 0
212 183 -254 0
146 -217 47 0
226 -94 -170 0
-198 31 298 0
173 197 -100 0
-58 -217 40 0
275 182 -295 0
-149 -113 -205 0
42 231 -216 0
45 -163 225 0
-155 -160 58 0
-238 -217 -235 0
-217 -291 -102 0
-129 -110 -210 0
141 -216 -119 0
14 -97 11 0
89 209 251 0
-140 143 300 0
-190 -2 -133 0
-259 -47 200 0
-42 125 6 0
-95 244 211 0
68 41 82 0
-184 -152 -192 0
-187 -147 -216 0
261 -277 -81 0
11 31 97 0
-191 -38 -253 0
-300 -207 136 0
-57 -118 -225 0
43 114 -234 0
113 213 -87 0
-248 -121 135 0
62 -58 -118 0
-256 -174 -55 0
32 150 -28 0
197 -274 60 0
-110 47 5 0
139 238 -271 0
-78 124 -112 0
169 10 241 0
-76 266 -33 0
-170 -267 280 0
91 -190 128 0
241 151 270 0
-218 15 111 0
124 96 -218 0
-145 -276 -289 0
-141 260 56 0
-246 -102 -85 0
196 -179 -137 0
-128 270 294 0
-191 26 -47 0
-104 246 -185 0
-62 63 252 0
295 -160 -245 0
128 102 285 0
-131 -158 -33 0
237 -81 260 0
-82 33 46 0
279 -52 84 0
77 234 -86 0
176 -209 -234 0
-140 113 -254 0
103 4 26 0
-40 34 222 0
47 204 -207 0
19 279 126 0
118 -40 298 0
38 -24 246 0
79 72 232 0
-289 7 143 0
119 -277 -12 0
-205 54 283 0
-133 -30 251 0
-161 52 289 0
251 -106 -155 0
50 -30 239 0
-59 230 186 0
109 -189 247 0
255 -78 -3 0
8 180 187 0
-243 262 34 0
138 249 -140 0
-107 193 -257 0
-2 48 224 0
-251 243 206 0
38 -283 -139 0
-45 -41 86 0
288 -247 119 0
-110 -93 -72 0
57 34 51 0
-259 -211 -256 0
242 226 22 0
-45 79 -181 0
149 -154 134 0
255 209 285 0
-295 -35 94 0
107 171 -7 0
-114 -295 -231 0
-243 35 50 0
-160 114 143 0
11 -200 -124 0
1 -121 238 0
-277 108 -204 0
-1 139 -170 0
124 63 282 0
-23 255 262 0
-253 157 277 0
-218 249 -115 0
-73 -235 -212 0
-233 102 -74 0
298 155 19 0
-230 -112 -131 0
-230 60 244 0
-157 243 -83 0
159 250 241 0
-112 48 -219 0
170 253 -126 0
35 -256 212 0
45 258 -240 0
279 168 -116 0
108 135 64 0
-119 -222 56 0
266 113 -59 0
210 -292 -290 0
-128 -183 249 0
-200 9 295 0
-199 -253 73 0
159 254 -291 0
294 -138 -78 0
287 111 -210 0
-160 -28 -2 0
-147 112 140 0
-189 -157 -237 0
-98 238 49 0
-262 265 -108 0
268 65 -79 0
79 -194 -203 0
183 28 -102 0
10 160 -193 0
-199 -115 72 0
-287 44 96 0
-87 -80 288 0
-58 -293 -233 0
-251 288 -37 0
7 106 -256 0
45 -74 158 0
-22 30 -188 0
-88 6 -194 0
5 -159 -277 0
-1 -132 -36 0
74 -251 26 0
56 -295 32 0
-23 88 -200 0
32 -117 258 0
-81 -21 266 0
127 142 -133 0
116 -24 285 0
42 52 293 0
-101 196 119 0
130 101 196 0
68 288 283 0
-112 -174 -262 0
-298 66 292 0
39 277 86 0
164 7 206 0
-44 9 -283 0
-254 -57 212 0
259 -251 69 0
151 263 -267 0
-108 -243 63 0
-84 -156 83 0
219 -80 -290 0
-96 261 285 0
244 37 -193 0
-8 159 172 0
185 -222 292 0
-275 -236 -183 0
37 79 280 0
276 -195 88 0
-60 -266 70 0
-109 -265 108 0
257 212 275 0
-184 79 -144 0
-20 296 288 0
96 260 274 0
-60 48 -173 0
-150 -14 267 0
81 -19 8 0
-175 -246 217 0
76 -123 -77 0
-144 59 -135 0
93 -257 -95 0
-190 -200 -32 0
-225 107 139 0
-72 -185 38 0
84 10 -42 0
97 -87 232 0
