c Random CNF formula
p cnf 700 4900
-655 -115 -26 282 0
-559 -90 -605 433 0
-575 -204 -666 559 0
-164 433 -349 -285 0
-100 -368 -353 -619 0
388 81 566 301 0
72 47 678 234 0
390 -285 -465 651 0
700 664 -74 -624 0
277 656 571 -225 0
-33 324 411 275 0
218 672 -512 -406 0
-575 552 -270 599 0
142 522 -506 -94 0
-697 433 -611 -66 0
567 12 -697 118 0
-115 301 446 -162 0
513 -183 520 109 0
157 383 166 553 0
501 20 -115 -372 0
581 81 88 -498 0
-676 487 -563 -170 0
553 206 -320 409 0
-124 254 -231 -66 0
-73 -647 -61 235 0
286 686 498 220 0
-249 485 -417 -195 0
-56 -690 -670 662 0
-255 -197 -195 -550 0
-78 454 564 101 0
-243 171 417 -498 0
-3 400 272 466 0
-678 499 159 195 0
-322 59 52 -599 0
521 83 -191 -71 0
-584 -253 593 609 0
324 -268 -210 686 0
-308 469 324 -75 0
-551 -219 -519 -272 0
292 162 449 557 0
9 -684 568 -307 0
-110 -567 -160 279 0
271 518 -501 -258 0
284 46 -4 342 0
-565 438 575 -10 0
-37 -379 -597 566 0
-41 -367 216 699 0
417 636 159 243 0
26 184 341 -422 0
-111 392 -40 -482 0
-234 -229 25 676 0
-286 360 657 522 0
119 -268 -183 -595 0
-322 447 -621 -524 0
447 2 533 -552 0
442 72 -681 339 0
-520 317 683 -419 0
681 -389 694 -179 0
294 -216 -441 594 0
-524 485 174 -675 0
241 -689 -318 231 0
626 75 467 -425 0
410 250 152 672 0
-436 225 181 -531 0
137 476 684 544 0
-628 -517 437 -562 0
-254 -653 -284 534 0
241 -279 -344 -328 0
-157 220 -66 -425 0
431 399 -599 -21 0
361 306 400 430 0
-500 -225 280 447 0
170 479 131 638 0
86 -659 -439 -139 0
-466 335 -346 389 0
482 -20 553 54 0
-668 -42 -32 -254 0
-686 -118 -578 224 0
118 168 319 111 0
385 407 -204 78 0
309 -615 -124 -580 0
519 664 -350 13 0
-651 471 157 446 0
552 496 -477 -447 0
89 286 462 -250 0
-507 333 -187 500 0
283 -570 11 -530 0
-247 -488 -662 -503 0
-250 314 -680 596 0
-564 -339 -361 -465 0
-123 -549 190 197 0
538 -612 -290 -103 0
547 130 281 -47 0
-503 -106 -13 588 0
-259 -490 117 -67 0
153 -577 312 88 0
-634 -232 536 390 0
313 583 636 -62 0
-217 -271 -677 -84 0
-462 -609 -482 299 0
73 240 -271 -641 0
231 -664 -153 -273 0
-583 -296 -450 -128 0
553 506 449 83 0
27 94 235 691 0
689 -276 591 -42 0
285 -186 -600 -447 0
342 -329 687 -108 0
-411 -564 -38 466 0
-527 -2 674 556 0
-511 641 453 -53 0
497 -125 -30 646 0
566 418 -96 -231 0
158 -511 -299 -522 0
-468 565 149 -393 0
72 283 425 -349 0
-306 -602 594 -676 0
566 557 387 -467 0
-393 -240 421 -45 0
680 -668 156 -508 0
-103 -451 539 468 0
77 -481 -272 -347 0
691 547 -390 325 0
633 -71 -241 -647 0
-101 -649 -103 -455 0
-58 -301 -368 384 0
185 -175 180 -81 0
598 -147 238 473 0
-477 -295 -694 560 0
655 -435 -257 -468 0
243 391 -586 368 0
675 406 282 -9 0
621 -509 294 236 0
695 676 698 -141 0
452 -35 -594 374 0
180 -206 136 -553 0
169 -264 -494 303 0
145 232 693 -691 0
-405 -15 271 -550 0
391 -654 381 111 0
-336 625 227 -664 0
419 -120 -144 -47 0
-551 139 398 465 0
-602 -159 -425 671 0
-34 -380 -223 455 0
-377 -558 661 368 0
466 94 -679 218 0
-250 129 -579 -211 0
-239 337 -152 -611 0
257 -179 -113 677 0
-603 -332 -17 -179 0
66 -488 460 371 0
-45 675 -534 -309 0
412 -437 111 -503 0
152 68 130 -282 0
612 -544 302 -465 0
-671 667 -565 221 0
-409 426 -98 -321 0
-486 -69 94 88 0
570 62 -601 576 0
-434 -53 295 -615 0
494 -230 111 359 0
440 575 637 629 0
274 -30 -185 -280 0
-147 580 674 -411 0
-544 -221 -386 -430 0
-582 611 -87 -54 0
454 -678 -435 498 0
354 441 114 -291 0
-226 -405 -614 -57 0
-262 297 -336 -123 0
236 -513 573 -685 0
20 471 80 -321 0
-118 415 -22 333 0
-371 91 448 -109 0
318 -348 227 342 0
199 -358 -360 -661 0
-617 157 -672 78 0
594 460 -698 579 0
-324 155 451 70 0
-361 -520 -76 -318 0
661 -93 630 609 0
-43 461 586 668 0
462 -106 -352 -87 0
-450 -537 -536 -625 0
347 696 -613 -54 0
695 396 291 259 0
-342 -84 597 680 0
-402 -133 610 87 0
687 540 -96 -662 0
-220 -350 -498 197 0
-104 -520 553 -540 0
386 158 167 -186 0
449 -45 -421 -374 0
-460 240 -547 245 0
-377 -695 -585 452 0
166 -205 -620 -142 0
-106 -529 -128 292 0
448 94 -228 -462 0
-383 -242 396 84 0
-666 344 -150 141 0
481 -460 -631 -6 0
624 -541 -434 -114 0
-655 638 469 -65 0
-528 -589 -248 148 0
192 -681 685 88 0
520 -568 -21 -400 0
-17 366 -70 354 0
341 137 -46 361 0
476 -491 647 -187 0
301 -207 -45 -205 0
557 -485 -260 38 0
672 -340 -280 -128 0
396 -348 192 -509 0
85 435 81 -441 0
-82 336 -677 303 0
360 -458 44 362 0
-59 77 688 -653 0
32 -147 -623 695 0
-376 -371 -393 -581 0
455 -79 588 -141 0
117 27 -191 512 0
457 220 -627 -293 0
76 463 177 456 0
684 356 67 564 0
-654 179 371 -521 0
506 -27 370 -568 0
89 68 317 408 0
589 -76 129 -325 0
565 -656 602 187 0
-128 -531 157 -312 0
-532 291 -81 257 0
630 547 96 -515 0
-640 620 -346 578 0
591 -272 667 -216 0
643 -559 297 658 0
-305 -465 -75 -62 0
148 -321 -327 354 0
-327 -248 -478 -126 0
394 631 429 255 0
321 -195 164 -511 0
93 -403 -518 -469 0
-507 612 670 -689 0
-271 375 -413 47 0
76 -396 517 462 0
-122 132 100 -404 0
-148 -204 -617 522 0
486 532 -468 153 0
167 403 632 -307 0
-577 307 487 18 0
-645 28 612 486 0
-234 53 598 492 0
152 698 -249 -33 0
-429 156 423 209 0
64 142 -532 -213 0
178 471 546 351 0
271 -625 -496 197 0
-305 -296 213 501 0
281 -295 125 588 0
150 -298 44 295 0
-491 220 -207 -552 0
601 246 249 -52 0
424 -339 484 103 0
-162 -417 669 -488 0
662 61 92 668 0
180 -428 -181 38 0
297 -39 10 -306 0
657 -557 537 -506 0
116 339 -167 -470 0
-303 582 691 198 0
528 -336 -89 -411 0
-255 7 268 -393 0
-587 -12 268 -670 0
164 416 515 -319 0
-227 225 137 -490 0
563 483 551 681 0
84 -539 458 -541 0
561 -518 208 -587 0
-697 211 598 -501 0
-526 -426 468 578 0
406 -261 -4 -224 0
-62 -71 -484 33 0
-662 431 -384 -392 0
678 -553 137 -670 0
131 -229 4 -24 0
-389 -236 254 472 0
116 33 677 -430 0
-69 104 609 -35 0
46 412 450 -240 0
297 240 590 -327 0
-147 -677 534 227 0
180 -642 -696 438 0
-391 -538 -327 427 0
247 231 308 148 0
-571 -543 138 398 0
-380 -95 549 -196 0
75 -193 602 -688 0
16 217 195 121 0
-210 -407 -246 566 0
316 -268 369 526 0
-328 209 -380 -321 0
268 -567 -599 -594 0
584 252 -512 564 0
658 -503 -472 173 0
189 556 -658 61 0
50 -7 423 -141 0
518 467 383 -62 0
500 -17 7 -545 0
-294 18 -515 691 0
537 -153 -247 197 0
81 383 -416 471 0
-83 -670 666 -33 0
10 176 -85 512 0
-98 541 44 -236 0
48 -77 288 -557 0
213 -602 148 408 0
-399 694 554 340 0
-81 -513 -355 55 0
-629 -610 407 -335 0
-365 567 -385 443 0
-303 -253 76 -85 0
-399 325 -370 110 0
-105 136 90 -192 0
92 363 568 -96 0
424 398 87 -573 0
-390 -174 -143 -276 0
-432 307 496 -79 0
-632 -201 -469 110 0
-390 338 451 343 0
-308 -329 -618 -206 0
-649 -503 590 -249 0
-578 205 -607 559 0
215 449 -299 -71 0
649 311 248 -259 0
613 491 597 -411 0
38 -369 550 609 0
-364 171 663 -628 0
-340 -441 109 11 0
-590 227 457 384 0
-354 26 -495 108 0
-146 -357 -320 -352 0
-449 464 -327 69 0
664 112 694 169 0
-339 -574 -437 474 0
443 -406 -30 -629 0
220 211 286 -65 0
202 -469 117 -269 0
-398 -626 -402 -602 0
-690 -305 -630 -605 0
-188 383 145 -524 0
499 -651 -551 -661 0
-192 -323 -462 -635 0
-394 576 -518 669 0
-501 172 -85 -579 0
551 296 -173 469 0
587 -117 275 -557 0
-452 560 224 -436 0
34 -461 270 -357 0
243 215 -603 360 0
212 61 -584 360 0
300 297 587 274 0
139 -422 61 -284 0
-330 254 -693 -403 0
-463 78 649 96 0
-466 500 336 596 0
470 651 -681 367 0
217 -507 275 331 0
-497 352 699 -50 0
162 -452 468 1 0
-666 -310 -163 281 0
665 170 54 -406 0
-94 -98 -2 219 0
10 -9 -352 -124 0
-393 92 -105 106 0
-137 657 694 -147 0
360 219 -644 -156 0
103 -144 -127 604 0
-254 284 661 -87 0
28 675 309 -211 0
-56 -246 507 396 0
-13 370 -325 136 0
177 -483 -75 18 0
408 519 -294 -644 0
-656 -550 -551 631 0
160 550 335 401 0
-318 448 -245 60 0
57 -317 683 674 0
168 509 -356 -536 0
276 -121 -31 344 0
-591 -643 -79 509 0
377 162 -262 106 0
-3 -46 13 -251 0
-37 -567 672 -430 0
80 586 -382 123 0
48 411 -71 -477 0
-468 9 378 -206 0
378 606 506 -201 0
-420 25 239 555 0
-2 674 -386 -315 0
-62 -146 287 -96 0
-382 -470 87 -595 0
582 -64 -446 -679 0
-403 -335 -326 464 0
-599 -112 -160 109 0
-213 -463 -316 475 0
-618 42 221 -336 0
51 -694 307 267 0
-570 564 -256 -97 0
-228 134 203 411 0
-266 77 23 -67 0
-340 126 -44 473 0
-509 -31 392 -700 0
457 -153 -36 -629 0
-564 -491 -63 90 0
539 256 646 -557 0
558 -497 -353 -580 0
225 -31 -288 60 0
239 -164 103 254 0
-58 225 590 -398 0
-607 326 368 606 0
-577 -193 -505 -556 0
-225 21 -540 -490 0
-182 332 -61 -23 0
539 374 75 -383 0
331 140 162 -448 0
576 629 -366 229 0
302 131 -182 2 0
-582 34 187 617 0
107 -509 145 -340 0
-91 -687 -655 -344 0
-263 111 2 50 0
-505 388 360 560 0
231 -167 -463 -76 0
108 -76 -351 175 0
96 347 -609 629 0
-622 -445 -161 55 0
-554 -272 -677 289 0
-503 -158 56 370 0
-492 205 100 -27 0
-119 316 -408 483 0
-190 -380 -391 -379 0
276 578 -64 -155 0
555 424 604 -233 0
-549 -487 587 242 0
515 585 -530 586 0
-178 -172 217 -198 0
-643 152 610 -265 0
570 407 566 -334 0
-639 -602 536 430 0
103 109 577 104 0
271 -393 -671 -498 0
-634 624 -698 -412 0
-487 276 -382 21 0
101 -234 138 -308 0
-427 -620 662 92 0
529 -383 58 -528 0
-537 583 30 -178 0
-468 52 370 204 0
-127 698 -32 248 0
-601 565 359 353 0
-292 29 396 51 0
-663 -231 -694 212 0
699 10 -486 -136 0
313 659 -282 -434 0
-310 -694 534 639 0
384 -575 -663 -609 0
284 656 333 -268 0
-530 -247 -59 -615 0
-510 303 266 429 0
195 -352 228 -548 0
-308 -175 -674 -572 0
573 -188 -697 344 0
431 -340 -381 -267 0
-650 598 595 636 0
-391 543 -306 -424 0
-420 584 469 -147 0
-647 -182 -321 650 0
-591 -163 -502 -91 0
489 393 5 39 0
-544 196 -19 693 0
320 -133 -106 -393 0
298 -467 533 -611 0
502 368 -193 -169 0
135 -217 23 604 0
385 656 -262 -548 0
-21 -50 -119 427 0
-211 -646 10 309 0
141 -429 -108 -524 0
204 624 -205 -270 0
165 41 -562 -509 0
14 688 -92 -114 0
524 -77 104 -263 0
52 -103 179 -41 0
119 98 -47 -10 0
-449 -637 -275 -96 0
468 279 395 -490 0
61 -164 107 -427 0
-626 389 368 627 0
134 -495 -500 116 0
13 -695 538 591 0
-532 536 -634 98 0
657 395 -153 572 0
-518 -481 -508 170 0
52 -520 -229 -564 0
-587 -459 -91 511 0
106 -414 -423 37 0
634 653 -312 -521 0
56 229 -466 340 0
-464 -117 100 675 0
299 -561 -535 -383 0
-420 -110 261 -626 0
-196 347 111 -425 0
462 -469 -675 604 0
-50 567 444 -600 0
-593 178 132 107 0
-394 429 624 -255 0
137 142 -423 617 0
-322 567 -648 -223 0
689 136 -666 -183 0
361 576 -492 597 0
547 -293 -433 14 0
205 -274 -165 294 0
209 -555 34 368 0
-230 663 575 -399 0
-681 49 391 397 0
56 14 258 208 0
649 664 377 603 0
-302 460 182 -700 0
-42 -439 286 -570 0
478 159 41 158 0
678 -309 503 587 0
-189 534 -70 -518 0
-219 680 340 -370 0
575 -665 10 118 0
637 -250 41 -699 0
263 554 -290 26 0
457 -499 45 304 0
172 -551 547 -8 0
435 107 211 -551 0
74 -158 -25 -471 0
258 572 -73 -589 0
-415 -444 -324 18 0
-65 600 -47 75 0
-622 89 -289 -449 0
-226 140 -401 559 0
664 -383 -12 567 0
-404 551 561 -88 0
-423 -662 525 -146 0
186 688 581 -56 0
-563 -75 298 -688 0
339 -366 132 688 0
326 -498 462 337 0
-374 -324 -439 173 0
447 -284 -369 -138 0
-313 499 565 112 0
144 552 202 270 0
520 647 -32 -596 0
267 -557 -553 484 0
604 -298 -138 -476 0
-245 -629 170 527 0
-150 -496 -368 -42 0
44 -685 -212 -531 0
-48 41 665 -332 0
-270 593 -558 584 0
80 -530 -258 386 0
-354 499 -494 -619 0
-527 -659 288 217 0
677 -236 -425 -339 0
-166 -663 421 -23 0
-525 -41 -587 151 0
614 578 653 20 0
222 -460 622 483 0
597 -187 639 676 0
-611 -605 -71 236 0
-517 -430 154 -621 0
-545 -516 121 96 0
-695 665 442 -535 0
494 391 359 604 0
436 138 -261 489 0
-557 419 -264 194 0
-533 8 -385 -671 0
-437 668 600 260 0
697 407 -209 424 0
-496 260 315 592 0
676 122 -236 458 0
-347 564 -629 -54 0
-149 -483 -615 446 0
394 411 629 672 0
-180 656 507 450 0
200 -35 -614 -523 0
-245 -671 -1 162 0
-416 601 206 531 0
573 -597 357 -356 0
-414 589 5 268 0
349 120 526 264 0
387 577 -496 -250 0
-601 -29 494 -120 0
236 -324 423 -362 0
-96 409 -690 -351 0
588 -276 188 -700 0
-248 -272 212 -235 0
110 -123 -81 693 0
-44 494 381 636 0
-282 -503 188 -524 0
434 -490 554 -34 0
124 -531 -472 324 0
-334 -371 -628 266 0
-352 -375 189 -511 0
411 287 462 185 0
277 -242 569 443 0
-485 10 181 432 0
324 499 -308 257 0
62 -221 261 -488 0
-369 -574 -571 264 0
621 204 591 -590 0
333 -690 -523 500 0
475 647 -149 172 0
-415 -74 82 166 0
620 661 405 278 0
-534 -462 424 172 0
-82 -216 171 407 0
-27 407 -537 86 0
400 -317 -235 254 0
-175 30 36 -680 0
-554 279 562 456 0
-468 647 652 578 0
-494 -553 -233 -92 0
-1 536 140 -353 0
489 307 10 441 0
-194 -422 575 -448 0
-388 -226 270 82 0
279 -292 665 -545 0
297 -114 653 -467 0
-20 156 -51 -548 0
-449 -9 -239 -93 0
-511 381 475 -33 0
-402 74 -557 -482 0
13 -125 255 -395 0
472 -97 534 -682 0
331 163 -645 -44 0
306 -204 -370 54 0
333 -16 -172 283 0
-596 -487 -611 -159 0
-634 347 641 62 0
129 500 239 325 0
-450 -198 22 -387 0
449 -573 -302 -556 0
-480 282 -614 568 0
555 376 465 1 0
-635 -373 636 245 0
195 -537 -700 -510 0
330 -114 99 -536 0
-33 -207 110 -498 0
-502 -539 639 -605 0
-214 672 -504 82 0
-426 -378 -60 -632 0
222 532 -100 104 0
255 584 641 184 0
591 -367 -691 470 0
564 412 517 346 0
-323 564 333 -381 0
-247 577 559 -220 0
464 459 407 1 0
-310 -7 308 228 0
283 567 -524 -570 0
160 -142 -272 -376 0
585 410 583 -223 0
-591 98 610 -658 0
-58 343 357 -445 0
669 -617 -12 -650 0
553 -579 -154 335 0
403 -457 -610 -590 0
136 -345 -85 -488 0
-514 -445 -134 139 0
-575 -631 -537 253 0
-590 -92 -116 -688 0
672 25 313 -174 0
-150 -452 46 240 0
116 56 249 -636 0
-114 -313 461 -483 0
536 265 562 495 0
-386 -597 -680 540 0
633 -278 -55 -477 0
-676 369 -111 20 0
521 102 -324 497 0
-469 575 -23 -41 0
-161 -19 356 361 0
283 64 641 -264 0
-569 -287 -231 156 0
534 -695 628 -641 0
320 -620 -338 460 0
208 -142 317 537 0
-672 579 162 -326 0
150 -31 327 424 0
-653 -281 156 193 0
-274 -621 581 -628 0
-489 138 -515 -620 0
-486 -141 168 198 0
423 -228 688 208 0
632 -502 333 469 0
390 321 404 627 0
-40 534 112 -463 0
-551 406 41 -572 0
-451 -408 312 -293 0
-530 146 -475 662 0
-560 -139 -403 424 0
-207 466 93 -257 0
127 -94 117 461 0
524 -627 -164 -388 0
-676 154 -167 -149 0
-457 -296 -642 186 0
260 13 -470 510 0
-244 -223 -603 676 0
251 561 -285 -635 0
-57 -669 358 38 0
-340 -90 51 112 0
610 587 -576 -182 0
307 331 378 -389 0
-483 -138 -125 -282 0
60 -112 586 645 0
-295 438 624 325 0
630 -577 509 533 0
-239 -298 199 2 0
-213 -631 425 -424 0
656 -207 289 -261 0
-7 117 342 350 0
-199 -339 -347 -689 0
160 -643 472 550 0
58 -534 307 -579 0
-340 -363 68 153 0
-170 -585 621 -399 0
-323 33 -279 424 0
-310 222 538 180 0
455 -519 -26 -495 0
537 -318 336 147 0
-136 211 -38 -471 0
-46 -609 90 342 0
320 -24 -592 -655 0
-327 -452 -688 121 0
574 527 -105 212 0
-291 588 -251 -176 0
-134 -30 -483 -692 0
611 -607 645 457 0
687 -547 81 477 0
100 -467 -318 -660 0
-632 265 -373 402 0
-333 -465 -500 31 0
-290 -357 619 589 0
334 570 -666 -73 0
636 -250 -562 163 0
606 442 -446 581 0
80 -588 499 118 0
181 316 416 72 0
-336 -507 -661 677 0
-652 1 -151 677 0
-201 211 698 325 0
-446 353 -92 -597 0
302 -64 379 563 0
-113 289 32 241 0
-416 -391 -446 559 0
369 428 -158 -296 0
-17 148 -499 674 0
426 -467 -619 436 0
-394 -364 -232 191 0
514 -276 -421 -560 0
378 -116 595 494 0
287 477 -530 81 0
680 685 80 649 0
548 -12 481 -465 0
302 297 -172 37 0
267 63 645 -485 0
-640 28 294 -497 0
136 -631 -288 -282 0
-606 -155 675 -458 0
186 541 34 352 0
508 423 -393 244 0
354 -56 -658 -271 0
-309 488 -546 -240 0
-446 -13 296 460 0
100 -545 653 363 0
-344 277 -274 101 0
248 689 603 -200 0
-11 -689 -9 -70 0
-225 291 -258 198 0
223 -614 654 -125 0
673 664 -580 -190 0
78 655 465 284 0
264 -166 -76 -284 0
-272 183 452 -72 0
504 -112 148 554 0
-266 106 36 -75 0
-510 -153 -669 -656 0
338 401 -589 -4 0
-72 554 232 -4 0
-549 -368 342 699 0
375 548 -349 -83 0
-568 41 394 677 0
-368 -499 -87 -648 0
-608 245 -501 399 0
-461 17 -38 -348 0
670 684 536 470 0
-239 -74 38 145 0
-249 -665 -134 15 0
-468 626 -175 606 0
-631 226 65 208 0
-333 124 590 559 0
-608 -178 -344 65 0
567 -169 -450 250 0
628 -386 -162 17 0
668 608 -291 -427 0
-147 -656 -278 536 0
611 185 512 -627 0
-5 572 -242 -197 0
553 520 -225 -476 0
-153 486 -510 -181 0
215 446 -258 -343 0
54 -551 -181 162 0
-456 607 594 -334 0
-113 -334 -234 101 0
-76 -483 -600 497 0
-183 -397 -383 -140 0
-344 -131 33 -583 0
176 352 226 303 0
-175 592 -567 236 0
-606 -485 474 -286 0
445 594 228 -606 0
-46 42 -482 517 0
-101 464 508 -247 0
-224 136 -368 303 0
-166 -471 585 598 0
-416 190 380 -642 0
-341 -544 34 304 0
213 -83 636 344 0
-53 -114 -393 375 0
69 -575 -210 -142 0
-595 -215 231 -329 0
-65 382 -354 464 0
695 546 300 463 0
-68 193 -469 90 0
112 -169 283 115 0
643 24 -301 -427 0
-455 -661 22 299 0
533 661 344 -422 0
-682 543 562 -456 0
267 233 -496 -381 0
467 -171 634 165 0
-683 158 166 -244 0
379 189 211 -576 0
-460 553 -167 -547 0
-149 470 328 -160 0
303 486 297 588 0
-347 116 -491 -42 0
-226 457 -366 95 0
285 -201 24 -86 0
-525 404 200 503 0
-370 -408 -152 -438 0
457 -575 90 221 0
-296 168 -435 -425 0
487 538 -344 -68 0
655 280 425 -180 0
-191 391 -297 568 0
-506 -573 -475 230 0
652 -484 -128 670 0
661 -251 30 123 0
-371 -596 493 580 0
-123 -383 525 -590 0
-473 -139 366 168 0
50 -297 -299 543 0
-97 -614 172 557 0
278 372 -99 548 0
382 -497 -422 349 0
193 573 629 539 0
428 472 -79 -120 0
372 143 -453 -612 0
122 -228 -132 146 0
436 115 -80 -20 0
-676 526 -608 -61 0
-11 99 -127 -617 0
-93 -150 285 594 0
-248 518 -584 -70 0
-197 289 176 551 0
-487 376 -604 -190 0
-389 -435 220 -527 0
113 533 140 -508 0
-336 506 -119 395 0
-455 232 -568 -418 0
-488 696 377 -184 0
-536 -675 693 88 0
-173 67 373 -204 0
435 512 286 596 0
365 488 683 -618 0
-466 -111 126 -257 0
-55 -70 511 -695 0
311 637 639 -99 0
-478 207 301 678 0
554 560 -19 -33 0
-386 454 471 -37 0
-169 -504 442 138 0
503 -676 568 553 0
401 270 -507 606 0
-329 63 -29 605 0
-28 -641 -350 -390 0
678 251 254 -241 0
-313 -118 -346 174 0
-582 -528 -432 -274 0
-585 -400 331 -587 0
-509 -515 684 -348 0
-651 -78 549 -220 0
-232 -640 -95 593 0
487 438 -215 356 0
-444 -680 553 -321 0
561 185 20 -643 0
479 275 654 546 0
-642 -62 -535 206 0
308 446 421 327 0
-274 294 -662 -165 0
-197 29 -252 318 0
-38 -207 164 280 0
181 -660 44 -498 0
306 66 -417 373 0
144 242 115 585 0
-538 -258 509 -93 0
-599 -400 -242 -434 0
-419 -261 604 -58 0
434 487 700 -253 0
377 316 22 661 0
56 -688 246 -260 0
-125 548 -243 454 0
-262 309 -93 -242 0
-325 -660 417 -35 0
423 341 433 -103 0
617 561 335 -465 0
-455 657 -140 -4 0
162 256 529 665 0
-328 463 490 137 0
-204 87 425 377 0
230 22 24 572 0
-204 -269 -173 -51 0
-377 175 581 121 0
690 -507 122 230 0
-295 -507 -392 134 0
-694 -194 -429 -185 0
633 462 -255 -379 0
332 408 -218 -393 0
-61 -54 341 241 0
613 -47 6 260 0
-136 -573 -43 -595 0
480 -136 -92 -325 0
131 -512 288 370 0
271 -530 321 447 0
155 -570 -674 -652 0
37 -482 267 168 0
-42 -453 366 575 0
127 -358 -96 209 0
-280 577 -680 600 0
185 427 79 -253 0
-698 697 -125 -404 0
-30 84 -472 676 0
338 -45 672 638 0
583 -133 217 50 0
-561 -617 391 95 0
-92 -22 214 167 0
158 124 306 503 0
-618 -135 -368 -682 0
398 -488 -275 -577 0
-191 445 646 437 0
664 159 -508 -540 0
490 -308 -153 -131 0
583 49 565 -79 0
-476 677 583 -260 0
678 -474 -184 187 0
-322 602 -466 687 0
192 217 190 -81 0
-548 -19 -6 405 0
674 617 -499 311 0
-692 -405 -310 -90 0
193 28 -215 493 0
552 -196 -89 -309 0
-157 -456 -497 -483 0
-402 53 -342 -9 0
508 -593 -611 568 0
627 695 -500 -238 0
66 -275 664 428 0
-460 -447 -22 -166 0
225 602 -348 617 0
400 427 690 669 0
637 -213 -290 89 0
-104 426 506 -311 0
-268 366 694 163 0
-346 441 -117 633 0
364 48 571 274 0
107 52 449 469 0
625 -105 -576 -43 0
371 -161 300 -453 0
373 -343 -142 126 0
252 -486 -350 294 0
-370 645 -681 -252 0
440 424 420 470 0
454 -150 -11 530 0
169 445 63 403 0
60 -647 677 533 0
312 322 353 -9 0
414 457 660 -211 0
354 -665 415 -203 0
-130 533 -554 -291 0
651 164 -24 29 0
312 433 -518 114 0
-127 49 -667 -128 0
242 596 -580 -643 0
683 587 -689 -144 0
-597 198 370 -466 0
-64 -436 134 -488 0
573 532 405 271 0
502 -427 -167 148 0
-526 -542 -121 218 0
-122 617 -419 -113 0
-381 -313 -384 311 0
-432 50 -313 -291 0
-358 -70 -46 -428 0
387 487 -621 -136 0
460 153 -334 -92 0
405 348 554 47 0
170 26 586 -646 0
573 88 198 634 0
488 515 20 -124 0
-211 252 -594 455 0
-504 -24 349 -448 0
-94 -118 -102 -555 0
-315 418 -695 174 0
-306 400 -102 328 0
124 54 -208 246 0
-395 118 -276 -63 0
649 240 -20 276 0
-668 -129 312 -582 0
146 383 -554 173 0
463 43 2 -476 0
-62 494 280 613 0
-218 600 523 -289 0
405 126 -144 570 0
-326 699 -351 -651 0
330 -350 216 -471 0
3 624 -488 5 0
501 403 -552 -84 0
-688 456 689 -127 0
-182 -9 -128 474 0
-288 697 -367 197 0
-240 506 372 -38 0
201 654 -406 114 0
676 -580 689 699 0
131 266 -584 234 0
-24 695 -546 630 0
657 -690 666 -54 0
-125 697 -531 478 0
-49 -285 -431 -546 0
586 26 -232 -434 0
-65 -642 -641 100 0
-343 257 254 111 0
533 243 75 615 0
-88 63 -35 -387 0
453 -57 309 626 0
302 -391 412 99 0
-639 -11 465 -394 0
667 692 -27 -465 0
-70 608 -199 -587 0
-636 -456 -191 249 0
526 668 -367 -319 0
618 352 299 -378 0
-244 -520 -573 56 0
-71 350 -194 684 0
-593 -580 -344 631 0
44 508 -225 -4 0
-493 340 -385 -211 0
-367 -31 569 118 0
-369 -45 31 204 0
-348 -568 -252 -183 0
694 -141 389 -671 0
-246 379 382 677 0
445 -67 -122 148 0
384 -326 -614 440 0
-194 -549 302 153 0
521 599 501 215 0
172 -521 398 -661 0
-383 539 495 507 0
666 -38 -213 -225 0
436 -387 586 -161 0
-87 303 -456 532 0
-437 462 -479 -443 0
184 -453 -240 272 0
526 560 -660 -81 0
-40 -560 -206 342 0
700 282 196 619 0
268 9 -307 -289 0
594 672 13 484 0
-234 233 215 -486 0
473 -349 88 -321 0
-450 461 -572 31 0
-10 -512 675 -364 0
-551 307 334 -602 0
339 582 -645 -618 0
-401 -66 548 -396 0
312 -96 176 107 0
28 -192 -204 -72 0
-537 -72 -466 59 0
401 -161 -114 133 0
-212 134 -211 318 0
318 -602 -208 515 0
457 66 409 620 0
472 -474 590 -41 0
-305 -401 628 -180 0
-394 675 -188 583 0
-162 281 644 551 0
-223 -506 422 567 0
-334 420 -462 -169 0
692 473 -391 -352 0
118 -140 -335 687 0
249 449 -144 -483 0
103 -182 -302 128 0
-694 -280 -158 452 0
222 453 49 651 0
400 -316 -455 -54 0
-256 -384 245 -205 0
-197 697 686 65 0
-172 -46 426 -525 0
-213 -555 -405 -439 0
-412 -670 -324 13 0
-666 -639 -378 45 0
-105 -550 -583 176 0
-398 695 137 341 0
-683 494 -70 344 0
-239 516 602 -14 0
-439 -250 -635 -82 0
210 658 39 244 0
337 138 285 326 0
664 -296 -25 235 0
681 255 -228 623 0
-67 504 72 -198 0
-178 -607 563 -210 0
203 -251 435 181 0
207 -279 -493 -82 0
433 518 625 -444 0
391 -438 86 -308 0
-475 314 -465 -291 0
-481 201 159 -195 0
-415 -426 405 -383 0
-40 128 395 580 0
357 522 501 651 0
253 -249 490 -36 0
682 661 -152 -268 0
-593 -679 166 -13 0
601 -83 -531 194 0
513 546 675 392 0
92 -112 -652 587 0
408 -316 -7 173 0
538 -427 -671 296 0
203 -499 187 -515 0
61 188 -197 266 0
-112 -652 -171 -82 0
600 -241 -490 497 0
-8 682 -597 43 0
273 -498 485 -346 0
-323 246 370 682 0
103 4 -468 412 0
-544 287 255 378 0
677 193 -4 -654 0
-47 -334 695 455 0
357 439 488 -675 0
200 147 -533 -586 0
90 -309 690 562 0
-494 -679 554 247 0
109 -446 -30 -165 0
-264 -682 488 687 0
93 341 230 -590 0
391 -670 -658 -576 0
-298 90 -115 92 0
587 377 -131 -321 0
-549 -195 398 434 0
-533 -680 617 -605 0
149 -304 -225 512 0
36 614 -328 317 0
-588 490 -647 221 0
342 -157 216 -231 0
500 -402 -307 -676 0
433 -695 485 -357 0
-200 562 404 100 0
312 -469 -671 168 0
-215 224 201 667 0
152 386 -438 696 0
184 54 121 528 0
-414 -251 35 122 0
-669 -385 687 -675 0
-648 -669 -456 377 0
522 231 -24 601 0
608 186 -394 -496 0
-334 66 -551 190 0
543 501 66 532 0
213 675 -121 -186 0
322 126 -41 -132 0
-36 87 -128 519 0
-674 1 255 -308 0
-547 -456 144 591 0
621 552 -523 -215 0
146 -307 -221 -138 0
-638 -433 77 -564 0
86 -261 -693 436 0
276 649 662 198 0
168 -430 -158 324 0
-80 277 -128 545 0
372 -342 -280 -150 0
-228 388 -108 127 0
502 98 542 358 0
-50 175 326 399 0
565 -609 413 489 0
674 -130 147 388 0
-380 -256 -695 -624 0
480 515 294 283 0
235 -313 -651 -90 0
-82 -79 246 96 0
505 11 -435 694 0
-694 -546 128 -416 0
436 548 354 251 0
-541 -624 44 622 0
231 180 77 -376 0
-389 175 383 116 0
-121 -298 307 495 0
223 -313 -659 528 0
500 -59 -365 -7 0
-191 -412 -364 10 0
-158 421 -127 -500 0
384 307 -374 439 0
-673 -450 -166 144 0
-204 -114 195 292 0
165 683 -204 -491 0
508 699 -131 333 0
399 -135 -113 -111 0
-243 54 -695 -351 0
-289 -498 85 -440 0
118 -270 254 683 0
515 626 186 -194 0
136 411 -40 281 0
94 53 390 -418 0
-437 -491 -63 -523 0
360 -429 -253 328 0
-330 218 -293 -484 0
-504 373 343 312 0
134 340 370 -371 0
-283 -216 599 394 0
-43 -601 -671 196 0
634 -352 309 -486 0
197 429 564 259 0
356 375 -460 -645 0
-516 23 -171 614 0
63 195 408 -507 0
-522 -394 -576 -400 0
-224 607 10 -526 0
-226 -304 275 -566 0
-655 152 285 -137 0
216 548 119 -2 0
563 -271 137 419 0
-11 365 225 287 0
-598 109 392 -670 0
-453 226 333 -276 0
-457 -238 -445 -378 0
181 -194 -584 -503 0
-182 -404 -623 193 0
413 103 540 -141 0
22 -113 14 -660 0
643 -615 14 -10 0
88 208 143 -492 0
491 -159 250 -58 0
-46 106 -558 -304 0
-230 -25 -233 438 0
394 -116 504 -174 0
-79 631 -342 -122 0
-155 -183 -439 544 0
309 -640 -294 -357 0
272 -79 -3 -153 0
-490 69 -116 -592 0
-131 -187 395 -362 0
652 -342 142 670 0
-505 546 -550 236 0
-225 90 -241 371 0
-137 113 62 -358 0
-472 148 -565 -432 0
-147 387 27 -435 0
-609 -162 -31 151 0
427 154 187 -482 0
422 -346 -455 661 0
-33 -619 -178 516 0
466 568 -265 -586 0
95 -535 -387 -129 0
-573 620 -80 -480 0
-56 -381 -663 435 0
-344 -29 -246 -289 0
317 -193 -565 207 0
-579 -46 578 -496 0
-366 290 408 513 0
691 100 340 418 0
25 602 -392 -489 0
475 -81 -641 96 0
145 165 514 529 0
-459 135 -348 298 0
700 397 245 214 0
510 -100 16 147 0
-90 511 -97 -466 0
-373 362 -92 -73 0
263 453 -666 -144 0
294 -411 -419 635 0
-322 -383 86 699 0
44 -636 660 -59 0
108 298 -385 163 0
-686 96 358 -478 0
-185 -111 -407 444 0
-498 -218 -488 -118 0
-656 219 -328 582 0
-371 441 485 219 0
-277 -259 -651 -181 0
463 -430 538 -220 0
-439 351 -305 169 0
-165 -448 364 585 0
-80 684 593 632 0
325 -15 -155 470 0
691 417 270 534 0
-650 -461 655 -593 0
-560 -171 -616 387 0
-15 -380 373 -17 0
-512 -665 467 424 0
-344 -117 181 470 0
-391 -292 676 697 0
102 90 -107 -92 0
-639 558 -103 -649 0
431 -217 229 466 0
360 476 -423 -661 0
230 -520 291 275 0
425 -690 -248 -5 0
-384 532 615 -326 0
-401 -198 632 -660 0
652 400 -178 -413 0
130 -517 122 647 0
-567 -163 -331 209 0
157 -29 -633 557 0
134 -465 650 -647 0
199 549 -252 388 0
643 -24 654 -594 0
-146 -290 -269 185 0
-401 -104 503 -23 0
430 385 -322 -649 0
183 -676 581 647 0
-496 629 -615 -560 0
621 31 -549 -24 0
-223 31 336 -142 0
494 205 -95 357 0
-447 -525 410 198 0
-403 106 598 -602 0
457 434 611 -279 0
581 -362 383 648 0
260 601 420 301 0
408 -31 -118 -185 0
221 -673 -381 -149 0
337 219 477 -582 0
-617 -218 540 223 0
-688 77 -588 -662 0
-202 -51 -506 -511 0
-616 -335 -606 393 0
-590 5 -473 292 0
-541 -41 346 -661 0
-309 282 -325 355 0
403 306 -466 -506 0
-633 -106 -30 -230 0
-447 232 -175 91 0
-6 54 -266 -45 0
628 389 -277 -175 0
-152 -599 424 653 0
678 -502 -288 330 0
85 362 -572 -249 0
507 -62 -218 -14 0
349 -214 605 541 0
672 -158 -517 109 0
-636 -526 -208 -410 0
-592 -664 -105 -151 0
-472 192 -274 -30 0
-564 -87 -363 -442 0
-452 -280 379 -101 0
-194 413 181 -609 0
-52 -662 -255 -114 0
-68 545 104 -283 0
-104 226 -275 -508 0
-611 295 4 97 0
-245 -175 323 -698 0
-14 -683 -486 -439 0
696 10 -609 -361 0
113 -47 -18 581 0
151 -97 -103 -312 0
-559 -264 680 -499 0
-342 -531 680 611 0
152 -421 -226 676 0
-442 369 212 92 0
642 696 -558 461 0
-358 340 -401 -604 0
-533 -352 628 126 0
296 -113 9 511 0
-297 -639 -572 -681 0
465 -42 -223 -290 0
-361 -677 -1 52 0
682 -575 159 -89 0
-83 -298 225 33 0
433 409 -101 -268 0
331 -593 -143 -700 0
313 -88 -305 581 0
-448 -99 142 540 0
-480 -363 -438 478 0
432 91 144 -630 0
-636 557 -580 301 0
-474 -531 472 -56 0
-609 -100 -298 580 0
691 524 55 -210 0
692 656 159 309 0
-639 206 -118 -69 0
210 -107 -486 -26 0
415 496 189 241 0
-674 -632 -127 443 0
-247 -175 -524 -560 0
-603 -505 377 -684 0
-436 152 -29 -291 0
-661 667 -673 -635 0
-470 284 10 -163 0
-538 -400 526 65 0
-471 -144 286 675 0
-386 484 621 675 0
266 -133 332 -603 0
-47 -31 163 -238 0
238 -243 108 179 0
-64 627 -257 -118 0
-647 -31 -179 329 0
-570 205 -201 259 0
445 542 197 -89 0
144 6 -369 418 0
658 541 -509 -195 0
-634 573 142 69 0
-131 -530 306 -104 0
230 -297 258 400 0
77 548 590 -248 0
-59 560 -114 -597 0
-347 432 -268 206 0
-338 680 64 242 0
37 355 -73 427 0
-133 278 43 -107 0
-311 234 -22 57 0
-389 -699 -19 -566 0
-438 563 142 -119 0
-199 -352 -448 -60 0
550 -582 -47 -16 0
-450 185 290 45 0
133 621 -408 491 0
-211 -507 -366 226 0
-670 251 -540 -274 0
-421 637 498 287 0
-313 567 -216 126 0
-451 666 -465 117 0
308 -87 -62 -286 0
-455 46 230 211 0
33 555 -357 27 0
-269 606 -222 -29 0
59 112 -567 398 0
548 475 -435 587 0
-479 244 -136 16 0
-556 303 -346 585 0
-669 623 13 128 0
-455 -474 -18 451 0
570 -224 419 60 0
66 -452 185 -265 0
646 -179 151 -633 0
-519 451 -594 325 0
266 264 17 -695 0
241 -359 -112 -80 0
-585 -381 -698 -426 0
622 -369 344 -418 0
-32 -165 378 -46 0
217 321 524 -521 0
-597 34 -673 -154 0
230 579 516 -589 0
541 53 -622 -484 0
-590 301 -250 -337 0
-119 -247 456 420 0
-670 -496 620 236 0
129 551 251 418 0
-350 322 -121 -84 0
-203 -185 465 16 0
482 -104 -130 -35 0
-528 -543 398 433 0
122 345 -606 624 0
-364 460 -419 -646 0
-138 188 604 -522 0
-665 465 389 329 0
-100 238 305 506 0
-437 -293 -331 394 0
216 441 -532 -285 0
-122 295 -281 499 0
-621 -109 238 683 0
173 29 613 -41 0
27 379 209 289 0
-465 -303 -113 123 0
286 685 -120 -363 0
-161 520 344 -283 0
323 40 -444 103 0
677 -642 37 650 0
-226 -690 -201 -272 0
135 204 651 -91 0
-69 -503 -572 -626 0
390 -647 598 -241 0
-308 238 -300 -685 0
-493 303 99 -225 0
-458 -334 254 679 0
356 408 132 496 0
-30 298 -275 520 0
-331 268 -692 -326 0
-56 275 -498 -225 0
587 -171 549 212 0
133 -620 -553 21 0
342 362 -567 -65 0
-161 -549 -406 -235 0
567 255 14 37 0
-497 -44 161 -290 0
-279 127 387 672 0
-79 76 517 426 0
98 603 401 -199 0
-24 -310 281 -470 0
299 440 -96 228 0
-547 -519 -251 -392 0
560 -111 464 -230 0
-489 -577 112 -659 0
575 -174 -213 502 0
536 -581 -239 -61 0
155 38 -330 -579 0
-576 501 -559 512 0
-527 -569 -84 -108 0
-533 125 -171 -203 0
-175 642 -538 -499 0
-121 -446 302 693 0
170 145 298 -536 0
-620 -258 484 474 0
-139 -169 -537 -486 0
6 320 -193 -205 0
-480 609 -161 69 0
198 -282 292 -437 0
261 -575 -555 657 0
-287 183 270 578 0
-339 590 607 620 0
485 215 -173 3 0
151 -147 169 -487 0
-524 -451 436 -681 0
-403 387 -395 -486 0
620 220 171 649 0
502 257 -124 572 0
-478 687 355 435 0
-392 -384 -184 11 0
337 -97 -378 260 0
658 491 -408 -45 0
586 -32 -483 623 0
-559 107 -40 379 0
-135 85 -430 -123 0
558 -285 199 671 0
325 174 -601 376 0
686 63 67 -198 0
-455 46 -283 624 0
-4 -319 281 575 0
580 -475 -91 -120 0
-642 -21 -174 11 0
253 316 698 658 0
-318 -55 -389 -294 0
193 -280 -205 -182 0
364 593 373 358 0
-175 38 600 -395 0
-662 699 296 213 0
-276 -93 -526 -216 0
-675 647 -191 -487 0
603 35 -331 -108 0
-343 -345 -664 103 0
23 450 632 -468 0
-250 259 -383 616 0
-240 -520 111 432 0
168 525 171 -308 0
-582 143 134 -680 0
-145 -355 -470 406 0
-309 -315 -83 -190 0
-569 -384 6 -489 0
218 484 685 -386 0
132 326 137 410 0
-435 -612 404 547 0
-228 -624 183 241 0
-408 -80 -662 -236 0
-348 -394 -670 185 0
-36 268 432 -184 0
85 355 -104 -672 0
-589 520 394 -466 0
56 -311 436 265 0
515 382 -485 -344 0
-435 -545 393 691 0
265 -203 -528 -630 0
-125 502 -472 -376 0
-692 -304 -25 -556 0
-305 652 37 -611 0
-180 -87 -548 97 0
354 470 633 250 0
-583 -470 42 79 0
-104 392 -525 -81 0
189 -264 -669 -82 0
268 311 631 -527 0
-588 485 -221 448 0
47 -620 -409 -186 0
-425 673 133 -282 0
-227 231 19 333 0
472 603 -431 651 0
352 -349 328 -355 0
-546 -175 690 400 0
-647 499 575 -354 0
-323 463 -691 -479 0
442 -426 -24 291 0
-135 -388 622 127 0
-183 163 -411 564 0
328 372 646 109 0
-515 -549 546 -402 0
-461 161 -182 -410 0
177 -700 -101 -393 0
30 634 -230 142 0
-419 24 -333 -625 0
-380 24 -616 670 0
-469 378 -246 -180 0
-67 -32 212 592 0
-182 473 -513 657 0
-164 -251 474 72 0
482 395 73 428 0
-622 663 -547 25 0
41 -373 410 -524 0
-269 594 -115 -174 0
-495 216 -271 100 0
251 -267 -351 -303 0
-282 -609 -37 -144 0
372 -299 315 163 0
-159 -132 151 -623 0
217 -598 311 152 0
530 416 489 634 0
-514 322 536 384 0
-494 180 -496 -389 0
230 154 285 -624 0
471 584 654 13 0
-234 208 373 681 0
278 567 -548 551 0
254 251 -263 188 0
-468 -182 42 624 0
-66 -136 536 311 0
-476 101 -550 -53 0
86 -488 -203 103 0
596 -441 115 454 0
468 -1 -258 417 0
-527 291 -661 307 0
-516 317 -641 -451 0
-522 482 508 -168 0
454 -351 -654 -552 0
315 -514 313 328 0
-216 -585 -689 -159 0
-162 625 -679 161 0
-427 276 -235 -270 0
-342 363 323 -461 0
414 -57 -419 -363 0
-208 -214 -678 263 0
334 572 -574 -205 0
77 249 165 334 0
-48 676 400 -499 0
58 -655 -351 -283 0
76 333 424 156 0
449 252 336 587 0
23 -144 70 322 0
-220 -189 -329 480 0
-266 262 -619 24 0
-50 542 62 525 0
335 552 504 290 0
572 116 -545 163 0
625 -666 -196 -75 0
-156 667 -339 75 0
-443 22 -412 -589 0
331 438 155 266 0
670 682 206 589 0
-194 -152 212 316 0
-131 -554 -357 -71 0
-311 168 435 -278 0
-451 127 385 -27 0
-458 -450 409 -204 0
-180 519 -593 -529 0
-620 367 325 -426 0
-262 -521 -115 468 0
103 -364 370 -318 0
87 -667 660 400 0
-332 -47 145 -255 0
482 40 63 -611 0
-425 162 -430 177 0
685 -186 -374 -113 0
-383 -272 -637 -329 0
-148 418 48 -553 0
-16 -358 229 -95 0
426 550 -451 -138 0
264 132 331 -673 0
-505 -585 201 -129 0
85 -98 -414 -290 0
676 309 337 474 0
135 336 433 -384 0
395 -648 50 203 0
-244 -166 407 -331 0
-592 -416 -463 220 0
-672 527 -346 191 0
680 -99 685 -351 0
-27 -557 -130 97 0
-303 130 356 315 0
-517 187 -408 -524 0
363 539 -616 156 0
-553 -236 -544 171 0
634 232 156 -554 0
411 304 -400 -535 0
308 1 -77 258 0
-609 -69 -61 421 0
-249 401 -164 -662 0
-232 283 144 -412 0
455 -146 -689 -283 0
-106 -644 613 483 0
625 466 158 73 0
42 -391 -262 116 0
-499 299 231 536 0
372 248 -681 507 0
287 -283 258 656 0
-86 -14 104 498 0
107 -500 575 622 0
392 44 617 111 0
121 245 -370 -595 0
41 356 663 451 0
-644 -443 686 -27 0
300 -423 30 -468 0
-255 284 457 49 0
165 215 572 561 0
-177 512 92 342 0
325 -314 -104 -93 0
-392 208 272 498 0
-173 -331 17 115 0
-304 574 -552 -183 0
-613 -680 -415 -270 0
395 -107 301 -629 0
42 -252 -562 159 0
225 -252 -232 -451 0
-22 627 495 -450 0
532 595 -410 -643 0
-373 270 -442 380 0
79 138 -330 253 0
-520 488 -549 -322 0
-661 568 -230 -477 0
-606 -447 67 176 0
-489 152 -66 -699 0
29 613 503 -442 0
-463 -318 552 691 0
417 148 553 -698 0
367 602 123 73 0
-255 616 184 -186 0
97 -414 -588 397 0
-188 -99 -319 -364 0
-267 412 -206 -233 0
97 -537 264 21 0
-98 -173 -2 542 0
582 -577 384 -72 0
224 354 100 700 0
-182 -520 153 456 0
-124 -320 299 111 0
510 198 618 159 0
562 -399 -459 -120 0
-503 193 414 43 0
-676 606 102 533 0
545 -535 -404 560 0
-300 -642 -437 -414 0
-575 496 625 399 0
57 -541 43 193 0
556 178 -657 -322 0
193 361 -551 54 0
183 521 -380 698 0
-227 328 75 -209 0
-391 -211 120 298 0
182 -400 -234 381 0
637 685 265 -433 0
-670 -280 -420 11 0
500 -260 615 -11 0
-679 -229 73 -653 0
550 336 172 -263 0
-294 -292 584 268 0
-89 569 -510 -206 0
-235 39 -398 -189 0
380 -449 147 453 0
194 216 -326 45 0
180 -359 -474 206 0
518 -66 231 -189 0
452 72 -252 617 0
59 -115 67 420 0
330 380 -40 -147 0
60 397 -581 123 0
21 -665 488 -586 0
-244 700 503 -628 0
-157 -466 550 369 0
398 -264 -165 -377 0
-421 555 -233 -412 0
428 -472 -464 455 0
-137 -543 -211 252 0
676 634 -373 475 0
-219 403 -145 482 0
-639 423 -53 -205 0
-530 -443 185 -454 0
-697 577 -160 -657 0
-480 252 134 499 0
-37 -693 100 -67 0
93 321 -366 -208 0
-639 324 -598 -458 0
-576 164 156 -168 0
566 644 481 288 0
-151 -456 -100 -41 0
21 -601 372 452 0
688 581 -353 -348 0
-308 694 404 -154 0
-650 329 -300 86 0
605 -428 -174 374 0
-25 -502 -327 -171 0
444 346 -42 -280 0
-565 33 -134 -640 0
482 -390 -398 -37 0
-525 -435 -417 -351 0
289 -274 86 -461 0
522 -117 -24 -132 0
158 -586 -243 90 0
633 73 -160 597 0
-681 -109 628 125 0
191 -94 -4 -444 0
-329 -641 543 198 0
191 481 -295 693 0
-82 181 203 270 0
78 -193 -192 330 0
304 -616 -423 -519 0
247 544 -8 -671 0
64 -65 506 -353 0
-691 457 13 91 0
-621 695 -68 583 0
492 -380 512 -308 0
-602 175 -44 362 0
-413 475 -476 464 0
-143 -325 -391 648 0
-177 -155 -608 -189 0
-203 23 510 -402 0
-195 499 -622 512 0
62 362 109 -69 0
-532 507 222 -427 0
-319 -634 -440 627 0
-132 -379 -579 -485 0
335 240 321 650 0
592 340 200 131 0
-608 -625 -243 256 0
-98 394 -152 639 0
273 69 -461 -399 0
61 -486 253 -229 0
150 280 328 497 0
-662 193 612 -620 0
-517 290 -255 -386 0
148 304 -26 -30 0
152 458 641 -392 0
281 -467 -283 -203 0
18 -127 -54 335 0
564 -27 -644 445 0
36 660 290 -332 0
-136 -509 -66 70 0
-95 -369 -366 -347 0
64 538 427 -658 0
213 460 -163 -119 0
700 572 -25 -54 0
-239 -157 141 -513 0
523 297 505 -25 0
604 -37 214 236 0
-377 522 169 407 0
289 -273 -570 384 0
-343 201 -335 -267 0
-668 -688 -525 -416 0
211 205 584 306 0
370 475 56 -664 0
-524 -25 -318 -13 0
398 -336 -469 401 0
293 684 255 80 0
-12 281 1 -311 0
377 221 -662 -196 0
670 -23 -305 36 0
210 124 652 -699 0
116 89 241 -467 0
-577 -492 -65 -157 0
443 477 -423 -180 0
288 -289 -491 208 0
-241 459 2 666 0
-501 238 -49 -294 0
168 383 -675 381 0
-417 179 595 -412 0
-689 507 -692 -556 0
-141 341 368 -661 0
-44 -352 519 641 0
-588 -143 -211 406 0
-43 533 107 -590 0
-233 343 -501 120 0
536 673 403 225 0
-232 656 660 465 0
517 111 -508 148 0
-311 215 -555 -654 0
-124 -213 191 -697 0
367 -678 -413 -11 0
439 635 604 490 0
-512 -328 360 32 0
101 433 602 636 0
-390 40 -500 89 0
647 -97 466 -389 0
318 -566 463 222 0
-692 -29 -519 456 0
549 670 -50 260 0
301 -167 41 298 0
-79 -204 494 498 0
-181 -386 45 310 0
-235 -456 119 104 0
25 -449 509 376 0
-378 -651 -557 109 0
69 67 -90 270 0
-250 141 124 -25 0
-560 383 571 270 0
-119 -574 41 -238 0
-381 62 523 -13 0
141 -328 -250 -492 0
102 177 398 -567 0
-131 523 -149 -70 0
642 424 -641 371 0
-44 329 -405 -29 0
231 131 -491 630 0
651 -162 -248 614 0
428 68 576 -87 0
285 403 -288 476 0
620 -335 316 482 0
574 699 -620 -614 0
502 -351 546 530 0
-296 609 526 234 0
357 -314 -197 -344 0
675 193 -628 143 0
556 567 -329 210 0
299 654 -253 211 0
-509 -384 252 402 0
-150 261 621 74 0
4 -69 194 261 0
-284 -524 -582 431 0
-610 -111 -488 -448 0
-56 43 -72 -285 0
434 -210 -41 677 0
-284 292 441 -247 0
-566 363 243 -156 0
-393 -209 555 632 0
-277 -498 -128 98 0
-178 226 -287 110 0
-396 -457 219 -238 0
394 -630 390 -24 0
-537 351 330 22 0
382 148 -80 -616 0
-224 322 362 -415 0
481 -25 577 -250 0
-586 -354 -369 -391 0
-448 262 -357 -235 0
225 600 661 530 0
374 -50 235 93 0
-257 -82 538 -262 0
-191 -235 420 320 0
587 671 181 -296 0
201 -618 79 69 0
-474 567 -378 -184 0
176 279 -526 -22 0
481 160 136 -248 0
252 -466 180 -113 0
-387 140 1 -295 0
555 414 -538 478 0
-415 258 -537 -418 0
-76 615 -377 -306 0
25 -323 499 204 0
461 -605 -144 665 0
-450 -259 499 -409 0
426 53 -252 -150 0
-477 -396 670 444 0
-42 -491 70 -361 0
-104 150 576 -277 0
-460 414 -343 -628 0
530 -600 127 449 0
562 -580 519 -69 0
-451 651 -274 -148 0
-404 226 -43 46 0
428 156 -438 561 0
168 -39 272 -495 0
689 506 -117 82 0
382 481 265 -591 0
681 335 540 160 0
-609 -252 232 -23 0
415 -53 606 308 0
225 255 476 -157 0
-410 -430 581 340 0
-679 68 -322 -59 0
-32 -342 380 122 0
-406 -603 -220 416 0
345 164 -613 -335 0
-9 -154 554 439 0
-664 -156 -53 3 0
-696 -366 -683 -586 0
-597 85 41 630 0
-503 111 -274 608 0
142 -67 474 621 0
-509 622 230 291 0
-464 368 -522 314 0
-241 -317 683 -335 0
-61 -602 -121 -152 0
341 -328 -594 245 0
688 -566 -602 -310 0
-161 -401 197 -354 0
192 510 475 -675 0
335 433 675 -323 0
-169 257 -426 96 0
246 526 619 -508 0
10 -647 -370 -352 0
-514 207 217 152 0
544 401 -542 605 0
-41 466 -606 -561 0
19 -418 604 -643 0
475 624 -586 -237 0
668 -40 -235 685 0
-42 -228 461 245 0
-281 549 560 427 0
-314 615 680 53 0
119 -241 399 -575 0
-440 -82 -337 663 0
265 -174 674 -300 0
-168 371 100 -296 0
-160 125 4 -246 0
-184 117 463 -346 0
-126 -493 685 -630 0
398 194 559 257 0
-89 65 167 -150 0
647 360 -31 349 0
413 -218 172 195 0
233 -673 507 -571 0
-43 -38 464 193 0
665 347 -426 8 0
609 -534 575 120 0
349 123 -640 34 0
-436 -301 40 -110 0
-265 -389 -157 288 0
-77 -511 -316 -308 0
96 -141 -538 618 0
342 326 -127 -188 0
319 564 555 82 0
305 566 -674 103 0
-431 -96 -674 342 0
-603 5 -110 -489 0
-163 -606 575 254 0
-107 646 -18 482 0
-699 522 -245 418 0
-193 -505 561 -244 0
-541 300 353 -140 0
-256 632 -128 -431 0
605 196 260 132 0
255 136 42 237 0
137 224 284 116 0
-15 -424 110 350 0
378 333 -421 -388 0
-651 150 212 399 0
-502 -501 -281 -448 0
-62 -470 -537 -297 0
182 437 15 -485 0
660 -230 -461 -206 0
165 -492 -226 -449 0
225 -565 522 658 0
102 279 -675 529 0
110 248 290 259 0
629 589 -543 188 0
-336 -568 -430 582 0
-436 -258 279 601 0
-578 -366 -99 -390 0
345 -366 -483 247 0
-79 106 -579 -141 0
-75 -106 698 -562 0
100 -38 263 12 0
461 215 -96 -349 0
-613 550 645 247 0
7 -502 222 -422 0
590 285 1 438 0
169 28 -100 643 0
240 -47 -184 -201 0
-461 232 634 -138 0
307 -443 -158 -65 0
-36 546 -180 -431 0
-112 446 235 171 0
-606 600 338 464 0
460 -436 -177 626 0
-21 201 416 303 0
119 130 56 236 0
-405 -666 595 139 0
247 -52 521 -622 0
-538 551 96 -266 0
503 -211 -144 -226 0
433 -650 -560 -83 0
346 31 34 12 0
32 86 331 -169 0
195 493 -101 450 0
-620 27 154 362 0
-297 300 268 164 0
489 -295 -503 535 0
-514 -637 -44 -322 0
-614 -51 -3 -678 0
-371 -529 -282 -543 0
-276 -524 -234 -330 0
591 385 -43 -566 0
-421 -617 629 572 0
-652 -539 -190 -129 0
402 259 542 -128 0
265 -660 182 561 0
-388 -193 -542 -664 0
410 634 695 303 0
-315 418 305 -163 0
-542 442 -220 107 0
-400 299 647 161 0
44 -192 413 -235 0
-197 -24 685 87 0
526 -590 -544 -518 0
-248 570 -513 532 0
477 -625 64 -690 0
-299 245 -210 222 0
-264 -602 -323 -126 0
-97 615 -466 -539 0
204 -247 -608 -94 0
331 232 41 417 0
627 -518 509 336 0
566 -538 -9 11 0
-601 -110 343 425 0
251 -387 342 484 0
611 123 -426 4 0
-355 -138 -60 79 0
-589 -294 112 -553 0
-28 601 -143 -418 0
-617 -518 -152 -76 0
262 -38 302 134 0
-646 -22 -346 244 0
48 -532 99 120 0
-198 -57 533 209 0
-28 396 -158 467 0
-224 -261 349 -365 0
-112 498 642 497 0
-538 -271 298 42 0
-459 199 351 306 0
-542 140 418 -48 0
105 -684 380 463 0
-579 -595 -67 297 0
262 597 170 413 0
-640 587 385 673 0
693 -695 468 -92 0
-394 653 -583 255 0
318 584 -634 200 0
-229 302 145 -441 0
-24 -572 485 159 0
32 -658 453 179 0
533 622 -226 -334 0
533 142 674 575 0
353 418 680 -121 0
31 -563 151 -416 0
273 -96 564 392 0
222 -16 576 494 0
-195 542 -322 586 0
-274 409 -555 153 0
-642 -42 -31 169 0
-445 -615 401 399 0
516 207 -77 84 0
27 50 -68 -385 0
-622 75 330 56 0
597 -454 -658 422 0
-277 -18 -508 452 0
460 144 -413 422 0
95 504 641 486 0
-617 69 270 -24 0
-200 204 208 -465 0
-176 208 -354 -411 0
169 -695 -105 81 0
-244 -526 686 -326 0
-125 195 -224 -459 0
-51 173 -593 -331 0
97 -442 -283 -292 0
-105 -408 -482 548 0
-684 526 175 192 0
604 -550 187 -105 0
587 560 -349 504 0
238 -553 249 -118 0
30 347 -235 587 0
-603 558 -652 -439 0
63 413 509 242 0
16 -374 3 -386 0
-645 358 336 691 0
16 344 -553 -459 0
-75 536 -667 -179 0
468 609 -41 -571 0
624 555 -296 560 0
339 35 620 236 0
-257 520 -299 664 0
525 -567 -645 68 0
-469 37 -671 452 0
459 400 -490 201 0
463 -282 390 80 0
-507 -626 545 505 0
-518 510 -158 133 0
659 -545 -326 698 0
244 378 54 276 0
400 391 -635 -340 0
287 -555 -181 351 0
-472 608 404 -201 0
253 650 -137 -700 0
228 -200 -560 -587 0
697 336 192 -546 0
-352 399 -172 590 0
-352 543 623 -379 0
401 -379 -375 -27 0
-573 -333 17 625 0
230 -8 199 314 0
591 -77 -116 493 0
342 -596 -242 -276 0
-91 334 -301 -465 0
178 -375 635 220 0
-244 437 -459 325 0
-659 -112 -291 90 0
125 606 537 485 0
-7 279 370 133 0
412 167 141 -339 0
333 -598 -519 -426 0
172 142 505 -346 0
648 348 -603 433 0
-629 295 183 515 0
439 -341 -27 -140 0
315 382 -655 -236 0
-659 -119 -334 -325 0
209 649 -436 -569 0
-533 538 632 -393 0
228 434 -460 -653 0
7 133 376 -528 0
72 539 -224 -178 0
-65 130 -205 -622 0
95 61 -387 -9 0
-209 -567 -475 354 0
90 682 -467 -182 0
-372 -576 643 273 0
334 146 634 -93 0
-674 568 -247 -105 0
-124 661 -481 180 0
223 579 672 -597 0
177 -159 -591 -581 0
104 -438 -335 674 0
148 243 -171 333 0
554 -209 -328 570 0
475 -505 225 166 0
268 260 -592 -511 0
597 -450 -3 -192 0
683 611 -480 540 0
335 142 -594 -572 0
-692 101 138 374 0
178 -39 46 272 0
477 -532 516 519 0
-382 684 -527 -366 0
42 -207 -18 -285 0
-587 -588 329 113 0
585 -96 24 153 0
-357 -680 25 95 0
198 59 627 -202 0
608 -512 -96 -624 0
-156 119 213 -162 0
-478 677 143 -55 0
392 -413 108 -133 0
140 352 -678 542 0
-220 -38 -301 -586 0
184 467 -667 682 0
-289 181 103 93 0
144 346 -9 -591 0
132 -18 606 199 0
68 671 -2 220 0
-598 -509 -18 -100 0
-368 -563 335 -553 0
-28 266 77 -160 0
-371 -629 -166 491 0
-63 454 -88 -442 0
-289 -544 666 110 0
647 658 -8 -228 0
18 631 372 -416 0
-434 316 638 -67 0
-292 436 -177 253 0
-473 -445 -3 114 0
126 40 -213 -28 0
-461 -409 -283 -93 0
-100 687 376 -459 0
-351 -63 -475 -87 0
474 235 -341 82 0
283 -504 308 -205 0
579 446 -187 -358 0
-440 -611 -260 -509 0
-688 206 622 413 0
-448 -404 -153 -81 0
487 -20 -33 -59 0
339 642 -604 26 0
-683 479 -128 -259 0
566 70 -577 647 0
-68 325 -177 44 0
663 613 -509 -405 0
-67 -204 -475 605 0
300 -105 -421 392 0
-497 492 585 -273 0
216 528 686 606 0
-457 -16 69 271 0
27 220 479 -53 0
92 421 57 163 0
-266 98 559 86 0
610 517 -599 -460 0
23 -551 516 -641 0
-73 -560 409 -267 0
365 -535 526 -239 0
12 -553 -177 -64 0
485 -683 -96 185 0
94 664 -685 87 0
-277 170 -615 687 0
402 -593 -687 -489 0
-121 -265 -91 595 0
-658 255 182 500 0
342 -387 363 110 0
-687 -657 408 -187 0
-656 -290 -625 386 0
-27 -273 -464 524 0
105 -396 146 164 0
-417 282 556 560 0
228 273 548 410 0
-141 265 405 492 0
70 -436 -23 639 0
116 601 255 -367 0
-210 418 111 -239 0
255 -45 -261 329 0
23 -170 -369 286 0
440 326 -666 33 0
427 -412 65 482 0
529 130 265 609 0
-3 -411 -473 -565 0
-108 -232 -335 -638 0
433 632 680 552 0
634 -563 -451 320 0
-93 -336 349 -603 0
-629 139 614 696 0
-253 -391 -46 360 0
233 -611 -551 -569 0
664 -129 103 -528 0
8 51 26 -609 0
-595 -257 -184 49 0
-571 -629 446 -442 0
15 -319 -323 434 0
30 585 -462 316 0
-624 30 -436 -134 0
391 -134 -649 -189 0
-648 343 -619 623 0
-436 -165 192 122 0
-439 -490 -673 -486 0
-29 107 -81 182 0
516 258 -547 530 0
550 16 -111 -486 0
-573 131 201 -82 0
14 -280 -457 -139 0
436 -78 151 -114 0
-491 351 -234 441 0
50 473 -568 -359 0
-527 180 318 131 0
-260 371 -275 49 0
293 668 479 -347 0
-144 199 158 459 0
-504 699 -636 -87 0
681 -301 -661 -657 0
569 552 -389 -174 0
556 63 69 -622 0
651 200 -34 396 0
516 -149 -274 -640 0
-37 650 -107 528 0
527 -69 -436 354 0
-369 268 269 438 0
-68 487 618 -635 0
667 -686 329 247 0
525 677 262 -552 0
601 541 527 -159 0
323 -493 593 137 0
260 386 239 38 0
-391 -259 180 -275 0
-461 167 -534 -242 0
-662 676 -563 512 0
216 177 530 -528 0
-150 -125 46 -120 0
-535 -396 -473 445 0
-612 -688 -572 -693 0
303 -194 382 -393 0
-567 297 327 666 0
495 -283 -432 564 0
-603 -324 693 -101 0
414 -187 -4 379 0
-389 449 -77 340 0
-685 -400 433 276 0
307 -89 -93 -231 0
409 -629 606 -276 0
576 -200 -441 430 0
-582 579 637 415 0
553 444 -572 569 0
699 -677 -657 497 0
440 185 372 -465 0
609 -243 130 23 0
368 466 -647 -535 0
-81 -567 -6 -586 0
-344 -523 322 121 0
142 500 -304 395 0
-661 565 -149 -288 0
273 -182 167 -145 0
55 -271 376 273 0
-382 498 -47 327 0
130 -376 509 -1 0
-409 -225 -351 420 0
-286 482 -182 516 0
-287 6 60 92 0
-165 269 -464 247 0
-556 383 7 494 0
-61 -94 -119 -589 0
-112 -673 89 323 0
-233 -452 -55 584 0
-608 -322 697 16 0
670 89 -517 -588 0
-662 145 582 535 0
-423 353 135 -610 0
91 -640 -528 145 0
-219 -73 37 265 0
-413 -228 188 71 0
369 449 -263 537 0
431 543 -62 416 0
-459 199 -603 -562 0
-555 -516 200 -561 0
646 -306 -416 142 0
-284 -52 -403 369 0
164 -211 -579 188 0
333 -110 -44 506 0
105 -240 103 -86 0
616 20 -146 -337 0
-182 173 650 -25 0
275 86 699 -182 0
-322 580 366 61 0
-52 81 328 114 0
-356 671 -603 -266 0
45 505 -103 454 0
363 605 691 375 0
50 10 403 295 0
-13 -209 593 122 0
439 47 -519 627 0
642 -629 97 227 0
559 368 -355 -250 0
-398 -73 35 -61 0
20 408 585 -439 0
-397 450 -489 -270 0
274 697 -129 224 0
-384 -231 22 3 0
-343 -336 -9 -224 0
389 -321 -262 134 0
-189 597 63 -643 0
-227 316 -339 -98 0
-432 694 48 365 0
-424 523 -260 -249 0
455 -226 140 632 0
468 343 -577 570 0
191 90 -176 -608 0
237 -247 -430 688 0
-469 -379 363 534 0
-611 130 2 -456 0
-564 7 -186 194 0
677 176 -70 362 0
-501 -5 -375 -580 0
549 381 341 564 0
-475 482 172 97 0
348 243 491 -548 0
385 -624 -159 521 0
-340 319 -55 674 0
167 2 56 182 0
-235 -139 -679 160 0
671 -217 135 538 0
592 617 201 -11 0
650 213 -52 -284 0
450 -510 -368 -131 0
-134 -516 -96 -428 0
-699 59 -353 -610 0
-599 99 626 551 0
613 92 426 -700 0
388 623 -42 163 0
30 -270 -254 -555 0
-582 -84 -208 -122 0
378 428 -403 -472 0
404 -157 -87 -585 0
-294 261 -308 -672 0
314 -620 -194 231 0
172 -465 -195 133 0
-91 -303 -151 262 0
-352 -671 569 329 0
652 41 547 -505 0
-638 -418 152 -655 0
-616 -585 -700 -390 0
138 289 -472 -192 0
252 -267 -208 36 0
-685 542 -512 416 0
-400 578 -692 276 0
-275 -651 -344 -205 0
278 -403 396 -609 0
-288 -130 81 182 0
587 341 -634 -314 0
-147 -331 -381 -590 0
-246 -14 465 283 0
273 -186 395 126 0
-667 558 598 201 0
309 -325 317 -219 0
469 -232 107 698 0
-508 -544 -365 172 0
-95 -571 288 -326 0
-181 444 518 472 0
50 -116 510 199 0
26 542 -421 -350 0
-464 -136 -592 -441 0
115 286 64 -662 0
-157 450 -550 65 0
-47 38 26 -156 0
191 -328 -475 679 0
233 588 127 -223 0
-169 36 -204 -125 0
401 181 28 -616 0
253 -353 131 383 0
-219 241 152 -174 0
631 -195 -535 -618 0
-228 -363 231 133 0
481 -407 94 -51 0
510 -124 -518 -163 0
-128 160 406 103 0
572 695 574 -648 0
646 446 -269 -547 0
269 135 149 215 0
146 166 -521 18 0
-355 574 687 580 0
-189 -183 363 415 0
-346 -217 381 672 0
-491 -251 -69 664 0
-283 -108 242 7 0
-125 669 -576 332 0
179 -411 -677 59 0
-485 673 375 -396 0
327 258 583 -75 0
439 275 -74 -80 0
18 -584 687 94 0
462 -561 509 367 0
19 260 -173 446 0
-509 -99 140 678 0
441 636 -414 474 0
-536 -486 -221 -76 0
617 190 -136 449 0
-591 544 -548 637 0
-213 647 586 -317 0
317 193 32 -525 0
-128 -149 47 163 0
498 -388 279 -290 0
52 -2 -144 431 0
446 509 411 305 0
92 -430 207 -395 0
-339 -34 -24 -417 0
-603 -396 -279 -579 0
-651 580 -666 -367 0
-380 -608 -478 -9 0
-424 691 212 437 0
538 636 -574 -584 0
674 446 254 306 0
300 227 -315 -264 0
584 -618 604 251 0
-283 593 462 -292 0
-539 -693 674 575 0
132 620 489 224 0
-535 -597 -277 103 0
585 -457 -133 -63 0
-335 309 532 -357 0
-484 -600 -136 129 0
312 -391 -66 -152 0
-365 110 -140 -118 0
-365 542 610 402 0
3 569 441 -81 0
-370 -566 -306 -194 0
-229 -556 564 -380 0
-418 -162 -687 -139 0
-272 -417 213 672 0
-426 517 691 -674 0
667 -322 145 -583 0
670 -92 -663 -679 0
193 -39 -310 213 0
376 49 -168 -166 0
-186 -460 345 164 0
-240 -10 140 -17 0
-11 -236 -23 225 0
-126 687 -439 -468 0
-490 625 -356 323 0
216 58 81 -178 0
-500 175 241 -30 0
-131 554 304 470 0
17 94 -466 -167 0
383 -60 450 -424 0
105 -488 -658 -652 0
-616 188 -271 52 0
452 -158 694 -481 0
160 325 614 -42 0
547 -289 -261 -520 0
193 -463 -588 79 0
-123 544 469 526 0
-629 -52 686 -76 0
-37 -645 231 613 0
364 183 -613 -326 0
180 -146 505 -398 0
-22 -370 -297 -154 0
267 -606 -662 392 0
-553 -201 208 -297 0
515 532 -512 -521 0
171 11 384 -629 0
-321 195 699 -459 0
650 674 -215 -164 0
-190 -464 510 486 0
-18 -429 83 -409 0
-670 -378 -587 162 0
421 -224 44 156 0
239 447 251 -475 0
-638 -304 -681 -185 0
527 -28 -662 -685 0
-671 552 42 45 0
-161 -66 658 -86 0
79 382 304 524 0
-446 -557 428 -549 0
-597 113 -544 335 0
137 -690 1 44 0
-510 453 654 538 0
398 -654 -412 289 0
-611 -446 133 223 0
-447 -149 184 -77 0
-168 627 -260 -545 0
-524 582 -115 93 0
-603 625 -609 -628 0
-204 114 -563 -21 0
-173 -3 -64 -6 0
-558 406 -194 -99 0
251 543 241 -564 0
428 631 -176 -676 0
547 443 168 -469 0
570 212 514 -625 0
-496 -418 86 518 0
-413 -182 -408 466 0
1 77 -195 -159 0
624 157 102 -690 0
192 -473 615 65 0
-21 416 -494 505 0
380 596 172 7 0
-273 254 77 -637 0
-516 114 361 608 0
-307 359 677 510 0
155 401 386 378 0
-627 -363 -589 97 0
-580 -167 -352 334 0
456 -306 -140 -594 0
633 -422 434 605 0
-406 497 -23 576 0
510 262 -573 -361 0
522 -199 -623 -517 0
-470 532 646 352 0
-390 -300 -599 547 0
679 -656 -528 404 0
33 -168 -409 143 0
-63 19 -558 -184 0
227 -1 570 -553 0
495 313 683 -554 0
109 -567 -356 426 0
-380 14 49 1 0
-413 -105 607 611 0
-397 300 100 572 0
681 302 -443 460 0
-20 -670 122 -544 0
-116 647 -209 -438 0
303 311 -259 -135 0
352 -433 -573 -411 0
146 130 -120 -332 0
323 -436 183 -189 0
-221 651 -664 -676 0
399 -311 555 296 0
335 -175 -99 -238 0
-141 -295 342 357 0
-58 -4 -256 404 0
484 -243 -656 147 0
549 658 559 -253 0
333 -176 186 -599 0
321 -104 -416 -119 0
69 57 -345 54 0
-265 -459 -466 -315 0
145 305 -449 542 0
-473 122 365 -595 0
-297 -618 209 -38 0
-128 543 223 -432 0
-660 -534 -616 187 0
180 -571 -70 -362 0
569 -446 -189 324 0
419 335 -677 218 0
525 -52 104 -579 0
286 -391 -509 -90 0
-408 603 -67 318 0
-264 386 -645 441 0
-600 30 -38 -115 0
-18 545 240 -349 0
535 -298 295 175 0
530 -305 -635 -687 0
380 -503 337 651 0
-114 -607 53 184 0
624 677 -679 647 0
-655 624 463 84 0
269 -337 -102 273 0
-536 -401 -108 85 0
350 445 550 117 0
552 82 -282 345 0
673 -587 646 -171 0
152 -574 436 -434 0
673 321 -517 552 0
685 -327 200 -130 0
-247 599 -82 11 0
486 -315 -138 -662 0
588 61 544 336 0
44 -291 336 -63 0
-72 352 -544 -509 0
-223 -358 -522 614 0
62 8 642 342 0
441 -93 -376 649 0
-396 -385 -246 599 0
-104 389 -298 -253 0
-521 -246 -483 498 0
-666 -388 -420 -5 0
-262 -263 -71 700 0
-473 332 650 -210 0
-272 44 383 -128 0
-220 -9 -271 147 0
105 -270 649 266 0
607 325 -217 -23 0
267 676 622 -642 0
-550 -285 -629 522 0
115 -243 337 -551 0
273 202 22 658 0
-109 393 278 36 0
67 -520 506 211 0
-228 -240 -220 -415 0
239 -9 620 -13 0
653 -430 -24 191 0
41 269 -70 -671 0
-36 -669 365 -462 0
-58 -507 -606 279 0
-246 -565 659 -78 0
650 -148 284 558 0
-155 -400 -262 589 0
-306 148 190 297 0
177 430 -103 -111 0
-539 -442 -102 -391 0
669 -174 -58 156 0
401 -425 139 72 0
11 -348 -477 -488 0
342 -577 -13 -27 0
-36 -671 463 -176 0
43 -522 -484 -78 0
260 324 -287 -418 0
-71 -486 -7 466 0
-231 -309 301 -135 0
-351 -186 220 602 0
-681 18 598 -279 0
-185 -385 632 -24 0
-97 231 134 -482 0
-571 -25 694 138 0
-360 -115 392 -38 0
550 596 -94 175 0
-293 622 549 424 0
-527 -691 -432 -130 0
-539 276 -320 468 0
571 -91 579 113 0
-88 448 308 45 0
-207 -403 -623 -641 0
-554 276 -523 -448 0
-230 -588 -541 421 0
173 -68 171 -205 0
15 368 -337 -2 0
562 532 386 -255 0
-608 114 627 5 0
-93 -125 259 122 0
-95 -394 582 -643 0
468 596 -690 545 0
46 -398 10 555 0
85 -561 -436 -492 0
612 -604 -528 -284 0
251 -457 -85 99 0
662 379 266 -338 0
19 194 -652 -267 0
-245 -285 423 421 0
257 -291 -596 -280 0
60 564 142 274 0
553 94 520 156 0
-296 2 153 -401 0
-269 333 140 -479 0
320 -164 -228 -353 0
97 -574 -143 -565 0
72 -644 -181 647 0
-408 -118 -33 -63 0
25 56 -88 -131 0
180 206 -131 -582 0
129 31 -671 271 0
-446 333 230 -265 0
182 148 -451 430 0
-26 -110 -637 91 0
641 -210 -317 504 0
-86 503 420 548 0
-130 470 685 188 0
397 -360 -410 157 0
453 -419 559 -523 0
-83 -679 -164 -593 0
112 523 311 -513 0
-321 279 215 315 0
-561 157 -114 -155 0
365 -168 366 263 0
284 -290 659 -91 0
201 -560 -564 83 0
240 315 231 346 0
-184 67 541 530 0
415 266 19 -356 0
165 -380 319 -201 0
-31 122 412 -53 0
246 509 146 -103 0
60 -208 168 64 0
-607 638 -619 -51 0
-305 487 120 247 0
-478 668 569 425 0
160 -364 632 -53 0
652 478 537 -337 0
449 349 -229 346 0
572 -542 -693 -455 0
58 -233 -480 115 0
-114 -631 482 159 0
-649 -394 -258 -493 0
233 -42 459 -430 0
294 561 16 -690 0
513 33 -16 174 0
-139 219 -405 -191 0
394 617 -685 392 0
21 -399 454 -699 0
-592 374 146 92 0
-149 -398 -75 -5 0
-665 -536 265 -161 0
-552 228 592 -141 0
11 309 110 -436 0
-235 -48 -151 -104 0
564 -398 298 414 0
-338 -239 -318 -564 0
283 -511 431 266 0
-435 -126 328 484 0
114 141 -560 -79 0
-240 -607 -382 -577 0
-655 -47 -688 -613 0
-300 -446 -379 -287 0
-453 105 -28 -472 0
270 668 -493 545 0
-222 -101 -499 -326 0
453 -304 -75 -309 0
-52 166 -577 177 0
152 -462 -191 -569 0
257 -140 -11 -457 0
70 212 -347 -214 0
-142 367 619 129 0
622 54 417 688 0
-403 606 696 240 0
266 7 356 -27 0
205 -592 429 -86 0
264 10 -322 -197 0
-486 -513 -610 -475 0
79 601 -29 -248 0
216 -413 134 -467 0
-659 -151 -494 -106 0
502 -437 -622 124 0
-162 -632 557 381 0
239 34 384 -180 0
599 184 192 31 0
-563 -15 -98 -273 0
-433 560 26 74 0
83 -410 -199 -457 0
-34 -299 -598 -204 0
287 386 -592 230 0
-455 -444 248 569 0
333 267 63 161 0
333 -112 -619 -225 0
-506 185 554 -90 0
668 -49 306 577 0
464 -405 -662 340 0
-365 211 603 -501 0
-1 -518 560 446 0
423 23 174 46 0
-176 -610 -48 170 0
-307 244 635 34 0
-178 -161 357 -198 0
69 42 -158 384 0
-117 634 232 -346 0
415 -595 517 568 0
252 -198 -167 -302 0
8 551 28 -356 0
-130 276 -277 -93 0
613 -403 -321 -627 0
-509 -412 -203 -78 0
16 -394 -187 -610 0
459 -351 -638 101 0
103 -494 -382 238 0
485 327 -155 -684 0
-146 27 -636 -436 0
608 -163 -676 -546 0
171 109 -65 -363 0
278 -215 -143 103 0
-530 -453 -497 606 0
384 258 -135 158 0
644 692 330 553 0
-310 -556 -495 505 0
214 241 -175 -604 0
-633 59 -170 -349 0
59 533 342 652 0
555 -176 -329 -448 0
-521 273 -408 -494 0
-222 653 -327 -383 0
188 -359 9 109 0
-416 -173 308 -458 0
185 -662 -14 93 0
-90 -295 -584 588 0
-428 -404 -175 455 0
-351 -54 -595 -370 0
-41 20 -238 -630 0
-380 -206 552 -635 0
607 -228 -392 6 0
-473 -498 -675 39 0
429 -57 -486 447 0
-363 -11 -16 -587 0
456 436 -675 151 0
203 421 -118 13 0
446 -307 -141 205 0
-120 202 -471 -183 0
431 33 -433 214 0
-285 -439 72 -485 0
89 -507 635 -631 0
-173 -294 -574 225 0
-173 -225 -276 354 0
587 -262 -460 -584 0
549 -379 231 -388 0
-479 178 -203 -529 0
4 -610 348 -233 0
275 -179 94 401 0
34 -596 -226 -489 0
-664 -651 421 97 0
-283 -218 469 -53 0
668 360 -426 263 0
-240 -414 567 69 0
530 -624 -585 35 0
-591 -113 -12 530 0
576 -395 21 -298 0
-346 38 234 -254 0
-28 -406 495 -661 0
124 -562 139 -188 0
589 658 -288 84 0
442 337 224 -515 0
-483 211 -587 425 0
-633 516 494 410 0
23 -687 -653 -310 0
269 664 575 -433 0
-454 31 417 -401 0
-167 592 693 -16 0
522 631 83 -690 0
576 158 429 -331 0
-93 469 7 -547 0
-602 299 162 31 0
241 -90 691 244 0
20 116 -290 -368 0
390 614 -184 -66 0
265 -622 544 167 0
285 675 252 56 0
-78 478 552 -115 0
-386 -657 278 680 0
54 106 389 667 0
-146 -670 -524 -96 0
-488 -56 -614 -160 0
-32 526 645 553 0
466 164 -412 -154 0
304 -307 540 -335 0
529 520 -676 594 0
-647 -283 91 78 0
615 -395 -113 176 0
544 -137 18 246 0
-432 -200 689 -271 0
-667 189 658 -260 0
7 -84 183 12 0
-306 167 674 383 0
-160 -229 470 373 0
-415 61 -256 625 0
-301 249 385 -326 0
364 -228 436 -262 0
377 286 696 -17 0
-523 560 -151 -122 0
-531 379 284 -410 0
40 391 413 -475 0
-76 133 382 596 0
683 -179 139 -52 0
-421 -578 -635 -132 0
-583 -598 418 182 0
616 674 159 603 0
221 -329 567 489 0
462 -626 -192 -382 0
538 177 51 536 0
98 -336 205 -618 0
-130 -413 -11 31 0
675 478 409 151 0
313 668 678 233 0
-223 308 -122 -18 0
-651 557 -482 -136 0
688 393 305 -164 0
-12 338 -636 665 0
-32 584 -497 437 0
573 636 411 129 0
35 665 -379 412 0
252 -644 3 -460 0
342 492 157 668 0
-7 -318 -254 -315 0
75 -673 -199 -494 0
509 -502 508 -202 0
232 -430 -89 590 0
637 598 -612 -73 0
195 -306 189 -301 0
-624 -1 278 -506 0
132 231 323 -68 0
330 79 623 74 0
366 -92 495 -245 0
275 -361 393 198 0
-363 522 2 353 0
329 463 267 -278 0
683 120 -408 -49 0
-602 -252 13 319 0
-255 619 -560 -154 0
-392 -404 165 41 0
-286 644 -22 -676 0
-623 -347 93 392 0
-243 351 428 -136 0
270 22 516 -520 0
518 -620 -572 495 0
121 614 630 95 0
-289 228 -81 -95 0
-103 -99 -344 -551 0
-409 247 -191 -674 0
-466 -689 163 151 0
488 -489 280 373 0
59 545 -696 141 0
297 400 76 -633 0
498 -397 -418 136 0
385 -3 -373 238 0
-309 17 -133 -383 0
-398 530 -411 -50 0
-406 -245 445 9 0
663 649 440 -273 0
-222 -601 45 -607 0
-30 -147 -374 -139 0
472 -380 583 479 0
192 402 -43 51 0
475 -358 -505 303 0
141 45 -327 -293 0
-338 -231 527 93 0
-610 -399 357 645 0
339 408 416 -161 0
-506 -632 -507 54 0
-419 -106 -431 -143 0
-656 -158 432 -416 0
-517 -374 -28 -73 0
-696 -651 -93 -434 0
-451 -586 -64 -383 0
-335 315 453 581 0
375 219 100 -697 0
56 327 472 127 0
-653 590 -545 408 0
-595 -220 -440 339 0
622 -507 271 -643 0
480 51 191 249 0
91 556 -272 -251 0
-27 -618 369 -443 0
-619 491 218 -699 0
-41 191 575 137 0
472 -386 -633 608 0
637 164 -230 -548 0
-187 23 -590 97 0
-234 -180 -529 286 0
620 -606 538 -153 0
329 -87 -337 276 0
454 332 -447 583 0
128 31 -4 -403 0
-443 -641 -155 132 0
-425 -519 -35 408 0
-454 -4 213 -572 0
321 -174 -639 516 0
39 -656 -485 -305 0
664 -445 -485 -376 0
3 -441 -164 15 0
679 366 650 414 0
-290 -588 459 -274 0
-223 602 585 -696 0
613 80 -264 614 0
323 322 -15 289 0
-447 -304 222 131 0
104 134 161 562 0
-677 107 -338 -631 0
75 187 462 -448 0
198 -606 544 312 0
166 350 -408 473 0
-514 539 145 -132 0
-338 674 -560 -298 0
-205 -262 590 658 0
550 -278 -401 -26 0
276 581 397 198 0
456 -158 207 405 0
-145 -428 -86 -394 0
327 -461 519 417 0
409 -331 336 -368 0
-482 -442 -282 6 0
425 -544 -136 -299 0
333 110 -158 180 0
-603 627 484 -304 0
417 -548 -437 -18 0
43 -66 -464 21 0
275 -158 -218 525 0
-50 554 627 -548 0
71 218 -276 -685 0
622 488 611 497 0
139 -280 -345 157 0
540 -14 -306 326 0
504 -307 522 -15 0
258 694 20 -345 0
-443 -2 173 632 0
239 93 -363 -544 0
-18 -480 196 -320 0
-471 -483 -293 546 0
673 317 69 526 0
163 207 4 -513 0
657 -533 406 -527 0
-663 226 173 -440 0
-638 -287 170 -471 0
-455 198 -3 394 0
698 89 381 95 0
-480 -554 -513 -154 0
349 577 -320 -425 0
157 -242 -137 -472 0
515 -594 28 156 0
37 439 324 -280 0
688 566 288 -478 0
-456 431 -509 322 0
558 554 -640 -41 0
598 67 -329 506 0
-624 643 400 172 0
-454 -421 -211 -538 0
-82 -155 -244 608 0
684 618 29 648 0
103 159 -581 663 0
101 -524 138 -28 0
-611 -38 -122 -49 0
569 -148 -397 567 0
679 -448 -678 312 0
-46 431 503 336 0
231 -196 -347 -363 0
-104 -175 674 224 0
-326 451 693 34 0
692 -228 -529 -281 0
522 -551 -215 -108 0
53 668 105 157 0
-204 411 -549 455 0
547 -617 77 39 0
551 -55 146 -238 0
-437 -525 299 -270 0
238 -434 -438 -306 0
327 -492 -224 511 0
511 375 -464 -165 0
107 -522 -403 573 0
91 340 573 378 0
-233 180 -308 93 0
642 261 -551 -254 0
213 308 -299 394 0
354 648 587 -366 0
-625 -118 435 66 0
-79 526 681 97 0
102 -234 308 281 0
262 -576 209 -499 0
129 549 415 296 0
-30 156 -435 650 0
600 -394 -192 -120 0
-615 -387 -426 -424 0
404 247 -285 179 0
-132 137 -697 226 0
-214 -449 -434 568 0
-97 -486 -464 630 0
124 -281 301 -28 0
-469 -312 405 -370 0
-54 113 -563 -393 0
599 366 -659 391 0
-655 188 498 -450 0
-47 27 222 -561 0
66 -214 278 -296 0
185 -547 549 235 0
-68 259 -370 283 0
-300 -595 203 153 0
539 -530 -478 604 0
-297 -15 598 -330 0
527 199 -54 542 0
-549 492 -250 88 0
257 -235 -444 493 0
-498 562 -80 468 0
434 309 -132 339 0
3 -147 439 -593 0
-270 -184 -201 -13 0
515 -443 344 663 0
-142 173 -296 -98 0
-38 106 323 -78 0
412 435 -256 211 0
-285 39 -33 328 0
49 -382 387 144 0
-48 -78 -117 -213 0
-234 -658 179 373 0
-163 250 613 -261 0
-222 312 -191 -513 0
6 -178 -271 598 0
598 366 -254 448 0
249 284 -678 -587 0
-238 -365 -415 95 0
-380 341 -577 -68 0
253 -655 -524 -63 0
379 225 -256 415 0
278 -404 445 326 0
418 -131 -650 -591 0
-398 -506 -607 155 0
661 -429 -202 641 0
294 -421 562 -337 0
-104 -403 552 151 0
-560 674 80 426 0
-104 -404 -528 -672 0
-214 486 134 389 0
-98 -281 550 629 0
570 -144 396 282 0
408 -202 -607 305 0
-148 593 -649 -169 0
-196 613 112 472 0
308 -12 221 -405 0
-684 113 186 658 0
91 -636 420 463 0
-224 -337 -226 -615 0
585 -29 117 411 0
-35 84 -200 232 0
430 -494 673 -211 0
577 559 272 -91 0
222 -39 -76 258 0
593 671 -605 -679 0
166 40 155 543 0
414 558 -34 -75 0
-206 -265 -514 -338 0
-327 -203 77 -436 0
-606 -103 211 -557 0
89 508 -119 209 0
17 -139 311 476 0
-671 91 -297 95 0
325 140 497 -77 0
-523 -378 503 -390 0
-82 39 653 -512 0
592 -294 -174 -256 0
-244 -85 344 224 0
190 398 -69 417 0
180 -672 509 -320 0
67 478 598 556 0
-368 437 400 -620 0
60 32 379 -109 0
-357 680 -412 -214 0
-189 -460 -654 89 0
-415 -376 -27 -266 0
302 -670 282 114 0
432 185 267 -42 0
-6 4 654 422 0
-103 -498 -139 550 0
-114 -125 360 -676 0
570 -159 291 14 0
-367 -621 -606 610 0
568 -275 464 -620 0
-119 253 356 -684 0
454 -150 169 659 0
448 297 121 655 0
-42 -614 476 537 0
-25 308 105 -637 0
80 628 341 130 0
-269 -295 481 570 0
564 38 180 -88 0
395 228 353 -510 0
233 476 -572 600 0
636 -456 257 -246 0
340 566 331 -353 0
22 558 285 192 0
441 -581 -653 51 0
-557 -440 -16 -387 0
-240 -464 -280 -381 0
425 -96 229 429 0
-144 -367 -226 -651 0
629 -165 -656 628 0
511 185 -331 -10 0
257 179 -218 -309 0
-130 316 -114 -339 0
-548 347 323 -470 0
-511 -577 -388 -16 0
219 -227 673 -148 0
228 85 330 -656 0
-287 -21 144 620 0
-93 454 162 102 0
-28 310 -90 -418 0
-247 -605 181 416 0
406 227 -130 -364 0
161 513 -47 -310 0
47 -429 -98 -688 0
383 -634 -232 -502 0
-23 -189 -596 664 0
-386 694 -288 505 0
3 -461 -594 637 0
-353 -223 140 -240 0
-548 -78 -292 -340 0
14 -122 630 303 0
107 -83 -687 -463 0
-60 353 -182 -675 0
590 164 -568 -89 0
-679 -76 640 -62 0
-642 561 -697 -453 0
-344 -252 139 155 0
74 -142 388 -652 0
510 -86 -293 156 0
251 465 345 -252 0
-250 -75 213 147 0
390 628 214 -130 0
503 -675 -568 -207 0
-350 -216 -537 143 0
-398 -362 -168 439 0
-226 378 -66 -148 0
-255 501 -375 -689 0
421 267 -542 -452 0
-592 -295 -377 -124 0
-424 -593 133 582 0
147 689 56 432 0
184 612 237 -328 0
276 -142 75 135 0
-5 -191 151 201 0
685 7 -294 354 0
383 -120 -533 -299 0
-626 543 138 96 0
148 249 198 456 0
-277 325 -66 -405 0
-417 646 225 688 0
206 5 116 -69 0
51 -693 -531 -300 0
-557 -209 210 -218 0
-522 171 554 620 0
391 9 -344 -656 0
614 137 -25 576 0
-54 -117 193 150 0
221 384 -52 669 0
-299 401 113 487 0
-658 62 554 50 0
-37 -293 -262 -654 0
-416 -395 -522 349 0
671 -106 -282 -528 0
52 -202 -44 640 0
-391 289 459 -113 0
623 39 -159 474 0
573 -662 -210 496 0
-399 435 -530 433 0
-450 -365 -594 -534 0
43 329 -29 -341 0
-660 -553 69 603 0
253 374 246 -254 0
-164 -398 410 -676 0
-573 45 69 -698 0
497 620 -214 5 0
-350 210 -162 474 0
-663 -228 262 -325 0
328 -129 531 -380 0
558 479 -196 8 0
9 655 -468 -230 0
-487 481 -467 -119 0
-493 669 -517 -400 0
85 150 -75 -50 0
692 298 -501 222 0
679 458 481 97 0
124 -695 -594 597 0
-359 -409 413 467 0
537 -241 200 -295 0
-166 289 -142 -691 0
206 187 -131 91 0
14 -470 -22 -371 0
117 -343 505 -656 0
99 45 -71 -407 0
34 138 411 358 0
345 -613 -467 570 0
212 -367 504 -92 0
94 259 394 249 0
397 -291 -696 246 0
-507 -143 674 -418 0
552 342 -271 -607 0
3 -41 -36 -692 0
-312 683 387 -18 0
-214 147 508 118 0
203 241 -328 431 0
-206 -14 -92 60 0
-603 -241 -68 567 0
545 46 -178 540 0
67 344 -557 615 0
-51 -269 -226 -649 0
175 547 -659 -26 0
-651 440 533 -69 0
470 263 -469 4 0
91 -38 358 -698 0
628 444 -510 -208 0
-572 -599 -128 316 0
-365 -664 -30 107 0
522 -508 491 408 0
222 419 242 -443 0
-671 -407 656 -166 0
443 446 455 528 0
459 660 -407 -88 0
657 -617 -693 551 0
-326 -580 -549 -109 0
-445 -331 618 508 0
-379 -545 26 325 0
-128 452 -112 -397 0
-143 -605 361 -406 0
-117 316 -539 -439 0
618 189 269 -277 0
504 358 655 475 0
-604 201 -19 -127 0
-660 -520 401 641 0
-412 678 -659 616 0
418 -620 -216 -122 0
511 655 201 21 0
667 434 -143 -266 0
-651 296 -26 335 0
284 -313 -401 680 0
508 -262 -51 390 0
-260 -382 -225 -261 0
-563 550 -679 429 0
275 519 204 304 0
-671 -561 -440 -646 0
-402 -307 531 -321 0
374 538 -483 -5 0
-667 419 -625 -575 0
-441 -612 346 -549 0
-62 -370 -33 611 0
-9 53 469 202 0
-581 47 479 458 0
605 -323 277 651 0
-248 -576 30 -65 0
-40 693 -136 -652 0
-576 97 -320 -215 0
272 689 239 -230 0
-81 -103 -115 146 0
171 411 -367 -190 0
-692 390 188 -684 0
-542 -198 568 -694 0
-442 -42 -619 -641 0
312 -353 -367 -321 0
428 -139 -486 -191 0
257 395 98 -144 0
434 -171 -436 264 0
-539 -122 524 671 0
435 -585 -240 86 0
-634 -613 -345 -76 0
-338 631 605 553 0
429 452 234 -693 0
-235 -544 570 40 0
-666 156 -59 -149 0
696 -149 -567 -180 0
-371 380 -453 388 0
300 -605 -25 293 0
-208 663 -307 255 0
40 -669 -161 681 0
329 -17 418 -151 0
130 -400 -348 -66 0
438 145 -630 86 0
160 -161 101 608 0
-454 -224 696 -472 0
-579 -527 -699 463 0
-634 -83 -383 202 0
-182 7 -135 -662 0
628 36 -219 -318 0
-410 464 -407 49 0
211 -280 -418 471 0
150 -246 435 555 0
-681 136 -458 -177 0
288 -385 -62 -103 0
674 -561 174 371 0
-79 689 -397 -536 0
10 244 551 579 0
-252 390 615 13 0
-439 -494 -189 48 0
-103 -52 -486 -10 0
29 -670 -688 -546 0
542 381 -83 -113 0
659 -312 -371 266 0
353 -347 -399 -118 0
457 120 692 -514 0
363 411 -110 138 0
-557 -225 -26 382 0
-538 -490 294 48 0
-296 684 390 -71 0
-435 210 -224 -1 0
100 -306 -179 -642 0
-616 407 -545 -432 0
257 398 321 387 0
23 222 -387 -565 0
226 -499 700 618 0
81 -353 591 186 0
-609 117 -678 660 0
-287 66 45 271 0
-84 -557 -463 175 0
-21 90 550 -117 0
-55 492 343 694 0
672 259 -591 489 0
-324 -166 139 -110 0
344 428 365 -530 0
-10 444 79 505 0
321 -417 -250 97 0
376 361 -460 183 0
624 421 -224 500 0
217 539 -605 664 0
171 -49 -117 213 0
-357 -194 700 -176 0
124 248 -79 -482 0
-47 318 617 58 0
-381 529 341 516 0
241 697 -613 601 0
-224 -619 648 -158 0
449 -279 72 615 0
645 261 -506 432 0
-187 193 -416 39 0
367 265 -101 -213 0
-399 223 54 618 0
-534 678 346 -637 0
594 552 -476 139 0
-626 620 181 -111 0
-96 429 -411 521 0
-197 -440 -464 -30 0
-301 -12 -185 313 0
277 97 -632 538 0
422 -690 -252 -190 0
-558 -103 665 318 0
-278 160 -686 685 0
-377 -8 616 -316 0
-685 -528 437 -674 0
-590 -292 106 317 0
-198 479 -40 -328 0
96 649 -639 -58 0
-73 -28 -659 205 0
608 -180 -37 -650 0
-598 -680 -434 -615 0
-393 -96 583 257 0
197 624 694 -17 0
-288 -670 647 153 0
-193 -277 420 196 0
-244 264 214 -484 0
-627 261 39 -520 0
256 576 181 -393 0
461 -276 210 -349 0
573 649 536 637 0
-647 9 255 -583 0
-335 215 -331 -616 0
-469 -128 563 536 0
281 -140 -564 -521 0
-626 661 -412 683 0
-626 594 -265 468 0
-658 23 444 599 0
-83 27 221 537 0
106 -345 402 -492 0
-347 -79 -556 -518 0
-300 -268 -577 700 0
626 -656 446 590 0
332 -18 662 344 0
-235 497 352 -319 0
-183 575 446 74 0
457 -128 308 35 0
-247 -552 -332 503 0
527 -74 645 422 0
-417 -573 -54 -688 0
-87 23 82 -145 0
626 665 214 -2 0
-502 -471 359 -537 0
425 -151 -53 -199 0
644 610 265 413 0
239 -108 -551 -74 0
-432 -91 -489 -49 0
-287 -366 -473 -439 0
402 456 552 321 0
620 501 508 272 0
294 666 -246 -293 0
195 457 471 260 0
488 -399 -477 -430 0
-492 432 -479 -364 0
78 -325 483 -213 0
34 659 48 -585 0
366 519 -154 248 0
-342 -671 -673 -433 0
694 134 422 441 0
-14 38 267 -478 0
-252 -316 -599 682 0
613 514 582 -606 0
-105 700 326 -515 0
-437 -79 -320 314 0
664 -419 -524 499 0
410 -688 667 393 0
137 378 -414 352 0
70 -283 -169 239 0
-509 433 293 18 0
-433 -179 -160 -69 0
-398 -386 -34 316 0
-93 -260 -465 -513 0
132 -3 -193 336 0
-689 -171 -232 -517 0
699 417 -424 -318 0
93 -209 -376 79 0
201 -274 -429 326 0
-540 -551 374 -654 0
638 635 60 592 0
-175 568 385 339 0
-386 472 354 -636 0
-226 319 546 586 0
201 -546 -67 265 0
178 320 161 106 0
-248 54 -602 105 0
-303 -93 -90 412 0
-372 -201 -56 -65 0
-11 461 452 546 0
-418 370 -629 -563 0
443 -244 313 334 0
-189 612 606 101 0
-350 -157 57 427 0
106 24 430 -108 0
631 96 18 61 0
-652 136 -164 681 0
428 516 -129 156 0
412 175 -666 -391 0
-542 199 647 278 0
-12 354 583 236 0
649 361 -505 133 0
162 150 32 -48 0
-348 -631 -506 -132 0
-625 359 91 -303 0
525 658 -24 151 0
-45 295 -566 -30 0
-368 308 489 270 0
-350 -43 594 24 0
518 -339 -447 402 0
338 -643 363 442 0
-523 454 391 356 0
244 -76 211 399 0
142 606 24 91 0
-10 287 494 -604 0
592 -631 -16 220 0
263 534 601 331 0
-316 76 604 125 0
239 316 452 132 0
-419 486 221 -655 0
-404 506 9 570 0
542 -424 340 -390 0
680 -679 548 191 0
-2 -114 -540 224 0
527 352 438 -549 0
-420 655 -508 515 0
225 492 -276 -288 0
-237 -366 652 206 0
338 615 -644 163 0
469 -284 90 66 0
161 439 455 331 0
-634 -505 -435 264 0
-74 -367 -657 447 0
438 -244 9 52 0
63 -113 406 197 0
668 -655 159 177 0
-221 -313 679 615 0
533 261 447 671 0
-35 -282 -9 209 0
-342 225 -450 248 0
-498 -107 -355 -335 0
158 -403 -42 630 0
-413 649 142 -508 0
-307 640 588 65 0
358 -419 456 642 0
175 88 366 329 0
-571 -252 -21 -690 0
-163 396 -187 -427 0
-525 274 296 -405 0
493 352 85 -683 0
-517 -67 468 495 0
307 -99 315 -619 0
283 635 -555 183 0
-345 -679 -585 488 0
-597 -38 493 20 0
216 -654 -314 -228 0
345 421 578 -179 0
628 56 -499 -415 0
-216 369 608 -475 0
-342 -659 -259 474 0
-247 680 -74 -676 0
-375 -480 -513 345 0
-650 -500 317 -98 0
-635 -682 -322 -156 0
566 19 -691 597 0
500 -371 -514 101 0
-544 -269 -644 -656 0
-671 -654 -310 -455 0
-608 456 649 -99 0
-252 -298 -128 -570 0
222 -512 -291 -382 0
-624 -398 104 20 0
41 -108 449 -37 0
35 -501 557 -443 0
101 -408 160 -113 0
-563 -600 435 456 0
499 246 377 -690 0
60 -466 132 137 0
237 -354 -110 199 0
-318 169 -505 651 0
-231 322 492 582 0
275 533 23 -201 0
53 468 -690 -234 0
-158 400 -26 526 0
426 243 483 -606 0
519 -536 400 440 0
201 -171 78 271 0
85 111 600 -501 0
342 634 -314 -404 0
645 -280 387 -382 0
-294 79 113 534 0
351 -88 219 392 0
148 60 -212 566 0
456 440 526 309 0
-83 -267 -392 687 0
-250 -204 -249 -332 0
-174 -555 -213 399 0
299 -480 -495 48 0
446 -112 557 -243 0
495 -432 -670 -68 0
-289 -559 -537 529 0
589 228 -46 -232 0
-337 -411 263 -630 0
38 -331 237 624 0
583 -34 -579 499 0
-118 611 462 -700 0
588 -103 -193 407 0
474 284 -180 -121 0
-408 -142 -350 -176 0
-26 -564 -523 467 0
618 238 204 -377 0
-637 -655 85 -5 0
87 -492 -319 347 0
354 -126 27 167 0
-155 -557 251 194 0
494 -580 593 13 0
103 -505 -84 498 0
-59 587 311 -76 0
96 402 260 554 0
214 -245 459 395 0
-414 -469 -476 -684 0
333 672 -602 -466 0
-484 -243 46 234 0
463 -342 512 -271 0
-288 547 -45 601 0
-120 555 95 -353 0
53 -466 609 598 0
-489 -424 121 -108 0
315 -461 -371 -297 0
-579 467 -156 -171 0
-697 26 209 -594 0
-358 427 12 445 0
666 418 70 -224 0
-640 -454 -452 468 0
-584 -579 417 148 0
-455 -72 -687 -88 0
-134 568 -612 430 0
-669 -172 295 -207 0
147 -221 -632 604 0
29 387 -580 265 0
-671 134 -196 -350 0
-313 -93 140 -518 0
392 272 -260 -544 0
349 252 110 120 0
-11 -263 -171 371 0
332 -254 -455 -421 0
31 492 -571 -435 0
696 185 -44 -235 0
77 493 -36 -96 0
425 214 -607 591 0
-496 164 -532 509 0
-318 582 -371 419 0
-402 -318 308 118 0
-519 -7 -483 5 0
320 -347 -82 154 0
-4 85 -501 -370 0
511 -635 141 -675 0
426 -135 -478 -328 0
-698 -697 -585 459 0
408 -57 493 548 0
194 207 -14 587 0
569 -222 -408 -548 0
-266 -344 -457 -609 0
680 545 -351 -513 0
-46 110 580 443 0
-29 -633 -133 359 0
-563 -362 130 244 0
276 590 663 203 0
106 352 549 -647 0
-217 619 662 455 0
478 -343 471 -310 0
188 307 -575 -479 0
-616 -82 -530 559 0
-482 461 -242 662 0
-265 305 -196 -651 0
474 532 -508 -169 0
416 315 229 531 0
586 49 232 -277 0
483 596 429 -52 0
-68 -430 -363 -495 0
-392 -142 -129 -375 0
614 237 -55 610 0
-61 -103 696 -341 0
-472 -189 -187 406 0
432 586 -14 12 0
229 223 -338 -626 0
-162 590 552 653 0
632 428 -426 -493 0
-610 21 173 -171 0
-242 -413 333 -11 0
-39 -652 -57 443 0
320 -309 150 -463 0
-267 -675 -54 -291 0
148 63 -444 454 0
637 -202 -314 -237 0
218 688 -605 -188 0
-228 343 468 203 0
-253 -21 493 239 0
-52 186 -236 434 0
260 -23 649 -584 0
-248 -236 -356 -46 0
-136 -335 99 -30 0
511 56 -602 -274 0
-664 -692 307 -350 0
-382 90 -135 -329 0
530 78 601 94 0
22 -358 229 -318 0
482 -113 -342 -510 0
402 443 -237 -178 0
252 -18 441 124 0
-550 -673 374 -443 0
-447 -75 321 43 0
-513 -368 684 -668 0
-221 433 -25 -518 0
292 428 -99 52 0
513 -571 101 551 0
673 -118 396 -249 0
549 -361 -91 541 0
359 -643 -37 677 0
165 -390 491 181 0
-161 2 654 -568 0
-648 -198 -470 -216 0
30 547 228 51 0
-613 599 -644 -584 0
562 -210 -422 473 0
446 -389 -540 528 0
-504 -104 -87 436 0
-375 412 213 311 0
672 -450 -215 -603 0
-355 -439 -340 220 0
-19 694 -205 102 0
-165 -426 -111 381 0
-148 -269 681 -59 0
-25 674 60 351 0
38 682 578 -601 0
647 -470 -243 -533 0
14 208 -289 -255 0
-82 -299 229 321 0
504 285 109 -449 0
278 -424 -397 -157 0
-621 -387 -161 -149 0
-5 -170 131 -256 0
-392 -480 -463 105 0
45 -269 105 529 0
-13 -345 72 -423 0
-185 223 594 -131 0
-629 -35 -598 -571 0
401 627 -331 -565 0
16 -149 164 266 0
-196 -73 -251 -473 0
76 -113 -546 33 0
125 -270 -619 -255 0
466 -95 -514 582 0
631 129 -323 -388 0
498 -420 -574 -566 0
-269 -81 -288 96 0
-576 649 107 320 0
-238 161 323 -652 0
-462 40 -515 -370 0
396 465 103 -304 0
203 -108 -269 -363 0
157 469 336 -678 0
275 28 -228 220 0
-595 629 -538 -461 0
-235 403 -630 -296 0
-5 395 -18 -230 0
-67 662 -570 -47 0
38 84 -28 547 0
-170 330 -232 -406 0
298 534 -410 476 0
598 532 -606 279 0
253 416 -110 -26 0
74 -456 498 228 0
-207 38 -455 -541 0
434 -54 -38 -285 0
-89 -366 -343 607 0
532 311 680 -579 0
-166 235 582 112 0
-369 250 2 -57 0
642 414 357 220 0
664 -468 242 -107 0
-438 159 280 -519 0
574 358 -539 386 0
-491 -675 398 567 0
248 281 -591 206 0
-451 35 -441 7 0
-328 474 -623 -129 0
-403 602 571 -628 0
411 -214 -607 -548 0
-644 662 -336 370 0
257 678 136 487 0
-408 598 155 -371 0
25 -637 178 399 0
114 -684 -57 86 0
471 198 576 265 0
-84 143 90 -237 0
198 544 311 682 0
-575 415 -490 -131 0
269 542 -128 506 0
644 -423 -372 325 0
-544 -561 -140 144 0
-408 295 125 493 0
-30 -160 195 424 0
434 519 -194 325 0
-445 281 16 250 0
-234 675 -184 352 0
-412 466 -105 -180 0
640 -582 329 -170 0
-264 265 309 533 0
-440 556 -446 -520 0
-228 227 48 -437 0
-512 -491 88 342 0
58 656 398 -171 0
-365 591 101 156 0
-480 173 -120 423 0
222 -150 195 -332 0
328 353 -674 -635 0
467 585 201 -617 0
355 -70 -578 659 0
-76 -66 491 -692 0
-541 436 152 -364 0
165 -374 -569 299 0
557 -44 371 408 0
592 171 644 -259 0
176 114 -41 -484 0
452 -236 -438 -362 0
484 137 7 -66 0
-482 260 -690 72 0
-215 645 406 -335 0
94 -20 -19 -373 0
551 -263 -132 -440 0
-11 -463 138 133 0
3 195 686 -279 0
-468 -339 210 589 0
574 31 -621 -115 0
-437 627 -395 -572 0
2 -261 -383 -286 0
-401 271 -595 476 0
-340 566 -29 -103 0
-595 -423 -175 -529 0
326 -19 670 625 0
102 200 -126 338 0
167 -137 677 -566 0
-467 -664 -456 -652 0
314 509 415 179 0
48 110 90 -119 0
446 186 -475 -457 0
85 456 -283 545 0
368 547 -520 8 0
70 317 -135 183 0
303 -677 374 -611 0
-417 454 329 -456 0
-193 460 607 -562 0
147 453 -257 -333 0
563 584 -366 544 0
-357 -676 -172 186 0
-385 -63 8 -527 0
688 520 651 -592 0
508 288 400 109 0
-655 -491 592 -609 0
404 -50 226 217 0
362 150 526 375 0
407 525 668 108 0
479 406 -249 -53 0
243 509 602 292 0
-670 305 284 321 0
-318 284 113 45 0
-139 -395 656 352 0
582 112 -401 32 0
-528 215 626 529 0
56 -474 621 -587 0
-229 689 509 -338 0
539 -317 224 -314 0
454 668 -687 -101 0
-653 198 -324 674 0
-398 598 161 -153 0
242 -194 419 -596 0
45 192 230 90 0
-403 -323 201 -163 0
-122 292 -639 -462 0
-132 -252 275 -494 0
-35 -600 -249 366 0
-153 -38 -42 421 0
272 370 -578 -281 0
565 578 -256 679 0
-15 -429 333 -31 0
154 555 -665 -243 0
430 571 -362 -255 0
-349 -595 341 -53 0
512 511 499 -552 0
662 -141 500 -420 0
695 421 37 -30 0
387 677 -146 435 0
-154 -64 -578 -455 0
621 -39 443 -659 0
-349 -695 111 -177 0
627 34 469 -447 0
76 565 665 199 0
651 -75 611 -162 0
-3 -346 230 -26 0
57 573 -129 -149 0
465 -56 324 293 0
-456 -171 -561 149 0
27 82 172 -432 0
-430 375 -516 -594 0
-582 427 -20 -663 0
-643 -264 351 182 0
-481 -507 561 550 0
-280 427 -326 -491 0
146 630 -527 -513 0
-409 535 -63 -614 0
-73 -660 -387 264 0
-77 -661 529 435 0
-11 -207 -77 657 0
-377 652 66 148 0
-269 -137 571 -370 0
409 19 87 -591 0
21 -535 -451 3 0
-410 -498 106 376 0
-57 -483 293 60 0
454 612 -389 -464 0
-55 336 69 -94 0
481 -53 109 -509 0
-50 -153 357 682 0
-236 -700 633 180 0
-482 374 640 618 0
-342 656 236 -614 0
-317 261 172 355 0
-265 -686 -665 -170 0
217 452 299 -41 0
193 245 470 628 0
-405 -588 623 -459 0
-5 -543 328 -352 0
-674 48 372 -534 0
280 -603 627 -36 0
411 -176 -291 -47 0
-633 -592 572 -448 0
452 -606 112 100 0
-531 381 73 548 0
685 -330 -611 228 0
-121 513 682 -215 0
282 -545 9 -41 0
355 -631 508 -679 0
168 589 -530 496 0
-66 289 -482 -700 0
-6 -302 -179 598 0
-259 -699 -486 -185 0
549 49 278 -353 0
439 -635 516 531 0
-482 -339 -301 -286 0
-71 242 285 5 0
596 219 -426 4 0
-341 -680 -66 596 0
-114 -157 286 -541 0
686 -358 -417 122 0
412 -140 136 -246 0
-674 -429 -344 -629 0
-388 36 -135 -134 0
451 692 -181 -667 0
-665 166 -292 306 0
-108 134 -641 79 0
571 -500 -553 49 0
356 -638 -523 -340 0
-304 82 536 -30 0
143 78 -176 -679 0
324 629 280 -400 0
550 -514 -161 -546 0
249 -82 686 226 0
472 94 -172 -215 0
-391 -536 447 -301 0
399 140 -438 -555 0
-474 388 30 -250 0
232 -276 -449 82 0
-228 273 654 649 0
378 -492 249 -351 0
-464 -512 -660 -38 0
599 482 -224 63 0
130 175 564 -353 0
-168 -261 43 157 0
229 -593 -461 -470 0
572 -551 71 -369 0
-661 472 239 -541 0
11 305 286 -528 0
234 -213 192 -183 0
-617 339 -361 548 0
434 166 245 694 0
-286 -164 432 282 0
212 -61 88 -132 0
524 30 -121 248 0
-148 558 -230 254 0
562 78 -40 -554 0
-469 -287 203 -334 0
170 524 -472 -73 0
636 -377 474 -596 0
352 -627 -584 380 0
246 645 -397 -138 0
-374 -294 -77 -573 0
679 376 147 64 0
513 -168 -77 404 0
-190 95 -307 -384 0
-210 -42 681 -139 0
-208 27 -526 561 0
700 248 -177 94 0
10 -178 -597 206 0
-23 590 257 93 0
-371 -676 169 363 0
-290 490 623 259 0
-333 310 -417 9 0
-117 209 -310 -239 0
220 616 -639 -443 0
191 -506 -245 -298 0
170 635 -89 -209 0
313 574 -36 167 0
541 -72 -593 -389 0
587 -111 -693 590 0
197 329 -402 576 0
-240 442 642 409 0
71 -496 88 12 0
-634 -118 519 -491 0
-211 163 24 -255 0
-505 -79 -263 532 0
465 356 -158 -367 0
-387 -214 -121 404 0
79 96 -668 688 0
451 32 -193 -588 0
473 -24 14 354 0
407 -620 252 -141 0
505 -111 -698 -326 0
68 -281 -672 -50 0
32 -416 346 548 0
539 -566 -198 639 0
-6 592 -505 191 0
145 -383 564 -346 0
636 118 590 431 0
170 241 439 -508 0
-406 -577 -651 -198 0
-242 -422 -262 450 0
-530 -442 492 -273 0
-410 234 109 -469 0
39 -125 -267 367 0
-276 260 82 379 0
389 -71 -75 425 0
204 -385 78 -92 0
-341 350 348 -646 0
408 -513 253 389 0
238 512 -463 92 0
-693 -280 648 323 0
435 30 -10 237 0
659 141 156 -509 0
602 483 274 129 0
213 400 544 238 0
-333 696 -647 -462 0
620 588 -88 -417 0
-194 422 266 20 0
-194 -486 475 35 0
339 -677 591 344 0
364 -262 -292 -628 0
-87 -488 363 446 0
115 -425 -69 664 0
-292 327 600 189 0
-565 234 167 433 0
-700 -48 55 -93 0
700 -638 291 652 0
-246 -42 278 580 0
-178 -641 -653 252 0
-555 207 656 219 0
416 -675 -504 588 0
425 334 -388 281 0
350 531 -574 134 0
480 -39 692 535 0
500 -591 -124 -119 0
261 391 666 -84 0
-591 469 372 -311 0
687 529 -560 -668 0
686 495 -300 -573 0
-481 -574 -124 -648 0
89 -666 -569 -32 0
600 -62 -630 419 0
370 209 -563 -221 0
-315 -413 685 543 0
194 700 484 -10 0
48 252 500 533 0
-446 594 231 169 0
585 528 241 280 0
504 312 -554 -451 0
61 487 -294 -690 0
438 -483 405 -370 0
-106 458 -601 278 0
42 199 -315 -342 0
-184 -407 627 232 0
262 -354 -176 381 0
34 -473 -265 41 0
-151 663 -153 -279 0
572 205 -494 649 0
215 -410 -418 -615 0
265 133 -154 546 0
533 237 477 -144 0
-181 -191 346 594 0
-55 8 -557 599 0
-210 -457 12 274 0
-648 -642 -551 527 0
-85 131 369 -662 0
225 451 104 607 0
694 -117 -489 432 0
643 -396 -303 379 0
148 99 -377 502 0
-162 446 297 -31 0
664 617 -439 535 0
539 -570 219 651 0
622 -480 -694 689 0
24 -244 169 97 0
354 -372 -83 -698 0
445 665 -537 -415 0
-305 -507 428 483 0
439 253 -146 573 0
-237 541 -343 -190 0
-334 361 -580 411 0
-425 -234 611 -619 0
570 -577 -357 329 0
-669 377 -204 -77 0
94 17 679 -150 0
-386 -227 700 -172 0
191 -175 210 292 0
-67 -437 -684 401 0
-310 562 -532 -442 0
158 -424 317 312 0
644 203 681 -481 0
496 442 -60 632 0
300 673 -678 -375 0
-503 253 -279 429 0
219 240 553 452 0
-334 -134 -514 587 0
90 567 196 -454 0
-608 -542 -553 -515 0
-45 -621 -413 -521 0
-332 60 154 246 0
400 -288 403 -623 0
-238 -367 258 -542 0
105 365 -399 33 0
-47 -215 -339 318 0
-602 -61 -218 489 0
-597 -126 -673 -84 0
244 589 697 -415 0
515 -72 654 -577 0
-322 -534 617 -227 0
678 411 -2 -103 0
27 -172 601 -347 0
32 71 -189 302 0
384 573 -57 -395 0
582 593 119 -195 0
-365 345 124 -590 0
-591 -422 546 -449 0
-8 550 12 -658 0
-167 572 -375 -18 0
158 -606 -226 213 0
168 139 44 -577 0
-54 219 -490 693 0
-358 -395 -159 -460 0
186 425 135 34 0
-380 -76 -440 326 0
-50 -659 65 556 0
661 236 -696 -630 0
366 598 -521 508 0
-227 -118 292 679 0
620 108 21 -597 0
-561 -50 -296 368 0
-223 433 7 532 0
571 14 260 262 0
-78 626 512 -105 0
-436 578 -334 -270 0
-605 697 341 -514 0
349 408 443 609 0
-357 -586 670 -42 0
-147 682 -634 674 0
-667 -454 442 184 0
-466 416 -400 -620 0
401 293 -508 143 0
689 -385 532 328 0
397 -133 624 -457 0
554 -409 446 -9 0
410 562 -609 -647 0
406 379 388 -162 0
162 -65 373 -510 0
-152 -281 184 208 0
1 -534 -329 -536 0
-185 -111 371 58 0
-234 -339 -204 90 0
-18 338 -628 -639 0
127 7 620 88 0
232 -112 -284 657 0
498 525 -228 272 0
-477 494 -606 -558 0
-118 -438 544 151 0
-698 -530 -83 515 0
393 -155 -319 167 0
-446 -223 696 341 0
356 -131 428 219 0
-201 -506 -642 153 0
208 335 120 70 0
567 -26 -340 48 0
-540 192 -524 -484 0
-389 388 -46 -546 0
-513 458 -81 -682 0
221 -400 569 369 0
406 -132 -98 673 0
-85 264 -270 -226 0
285 294 -365 -146 0
-473 320 278 -210 0
-126 -700 -372 233 0
462 -169 -638 443 0
-211 649 -310 232 0
556 365 565 -424 0
488 525 414 -55 0
-376 -587 -605 158 0
225 528 -131 503 0
-220 121 -165 172 0
-450 -15 -297 462 0
-538 -224 406 -569 0
-7 -471 19 227 0
412 -13 4 -689 0
563 159 -124 186 0
-218 516 -426 -551 0
-437 268 221 614 0
369 660 -601 -442 0
676 407 -34 -280 0
670 271 211 349 0
-94 116 -534 -674 0
268 186 -122 30 0
486 20 315 -573 0
542 98 86 421 0
566 -641 382 -587 0
-203 107 -214 -420 0
501 -410 -473 -438 0
573 -436 -74 214 0
75 599 -355 226 0
558 305 -184 443 0
-14 696 -502 -416 0
-230 625 -109 -343 0
204 423 -258 512 0
14 -90 3 538 0
-257 472 621 19 0
92 351 -493 230 0
-587 -391 473 683 0
404 -122 -47 -186 0
178 59 -373 -522 0
-274 372 636 -481 0
-699 455 -633 -201 0
698 344 -316 -695 0
641 188 424 -5 0
-566 -549 657 564 0
690 620 486 -206 0
606 -301 -218 -200 0
-173 392 206 154 0
360 609 404 -271 0
-634 -266 -598 -649 0
644 245 282 454 0
-133 -260 25 -374 0
-280 696 537 -626 0
-28 243 -452 358 0
538 -8 384 236 0
-595 -194 -192 622 0
-538 -44 -284 30 0
282 -90 -361 2 0
-264 31 -322 -106 0
236 -546 463 647 0
-479 288 664 438 0
443 39 254 -224 0
-585 635 486 271 0
590 -291 72 -55 0
495 -547 -113 699 0
269 -607 473 488 0
-23 438 -90 270 0
-277 -485 541 605 0
-685 657 -188 -420 0
541 -482 -343 444 0
555 -697 123 164 0
-224 -584 -113 131 0
534 305 689 -105 0
-422 513 457 -10 0
593 -68 46 -644 0
-31 438 274 42 0
698 -661 309 452 0
-234 -261 530 360 0
695 -8 299 269 0
194 121 463 568 0
-263 252 85 439 0
274 268 -43 565 0
221 -25 205 -191 0
6 351 -159 -434 0
212 665 39 -134 0
225 -22 615 -170 0
4 251 31 -451 0
-62 -185 -700 475 0
-644 624 -366 -221 0
132 -206 -81 681 0
-394 530 130 -57 0
244 58 -355 305 0
455 498 615 458 0
-278 338 -654 697 0
549 -161 498 -149 0
282 -135 -601 364 0
374 663 479 -429 0
-347 606 43 250 0
636 -337 -311 269 0
-16 302 525 568 0
32 -523 586 -140 0
341 -28 455 423 0
216 378 341 521 0
680 -157 458 -450 0
509 -505 -279 382 0
-130 -223 527 459 0
-495 -611 482 631 0
373 615 292 -561 0
-272 109 -447 -437 0
-501 -121 158 338 0
462 442 -458 -270 0
159 -157 -503 -152 0
-290 -377 116 643 0
51 -58 -348 -290 0
365 638 345 -373 0
-572 680 220 209 0
425 522 56 -574 0
-595 94 -31 -515 0
-91 -380 -338 697 0
-593 468 598 238 0
631 -699 249 71 0
531 -519 -560 -359 0
-566 -202 -612 -81 0
416 -292 50 -34 0
-223 -585 444 249 0
-242 -557 574 652 0
574 -546 630 217 0
-423 464 443 414 0
9 -557 -239 307 0
-415 446 -300 -493 0
31 264 475 664 0
-614 445 -417 -246 0
-563 486 -455 310 0
-680 91 314 264 0
-343 -256 -95 -335 0
630 286 11 -157 0
569 579 -385 275 0
532 -66 -125 678 0
150 249 -681 -666 0
-503 -141 -191 54 0
277 -55 -397 692 0
-534 335 508 -514 0
395 334 692 461 0
381 -472 515 -395 0
135 -406 -653 491 0
-220 -425 -230 170 0
-364 -198 -258 260 0
-523 -442 -454 -257 0
-334 85 -647 589 0
23 -349 -419 384 0
328 51 557 90 0
-577 513 -488 -434 0
-606 49 -286 -132 0
-518 -631 -80 -503 0
274 358 471 671 0
-371 -633 -613 -22 0
632 636 -440 98 0
516 -199 -46 320 0
-376 -127 227 42 0
144 -112 412 -563 0
-471 113 -290 -458 0
-625 -130 -455 -289 0
-408 -45 -180 -227 0
-523 -23 -429 -150 0
-143 56 691 -248 0
322 116 8 365 0
564 -500 43 437 0
183 -86 536 -94 0
185 -247 374 -193 0
-645 380 -280 -543 0
429 339 -485 58 0
-541 -233 -33 152 0
343 -644 -339 -114 0
669 -67 -331 -313 0
227 195 -292 -401 0
244 -7 -324 -494 0
55 -3 592 -554 0
462 -460 -34 656 0
277 -452 63 114 0
566 697 230 -218 0
-460 -658 -553 -384 0
-38 364 619 97 0
245 32 71 59 0
-388 622 -562 -194 0
-385 295 660 512 0
-45 395 -359 -645 0
-343 585 208 378 0
-378 7 -591 268 0
329 -436 -151 669 0
164 421 27 132 0
67 125 575 -447 0
621 -226 -447 4 0
-570 69 670 -479 0
-416 683 173 541 0
537 473 -477 503 0
-476 138 -395 -519 0
-664 -672 -615 -411 0
326 609 -371 400 0
172 153 -38 -363 0
-411 -246 583 679 0
-179 -361 -46 -50 0
-538 427 655 485 0
-502 509 -269 522 0
383 -629 638 -683 0
241 -382 -396 -619 0
-37 -83 -627 205 0
-127 -153 -391 503 0
194 -216 -379 245 0
-490 -571 -222 41 0
-489 -383 -238 -242 0
140 613 -692 284 0
-117 191 572 -162 0
378 -126 -463 237 0
85 -452 661 472 0
-582 667 284 -450 0
494 677 -507 -495 0
-129 -686 -309 217 0
-79 71 -339 507 0
162 52 -634 279 0
383 -462 660 -361 0
-591 103 -417 -549 0
-534 550 -323 333 0
594 -659 280 -273 0
-150 -499 -608 486 0
118 2 110 538 0
-626 -638 657 117 0
-252 -379 460 329 0
-104 -92 -333 -512 0
659 95 -422 -294 0
343 -332 -291 -427 0
237 350 -257 -399 0
292 -5 -502 -86 0
393 -64 640 349 0
52 428 -256 585 0
-367 -111 401 195 0
-182 -1 -175 -170 0
-527 43 -622 346 0
-344 -277 -125 197 0
13 144 531 -349 0
-442 328 566 120 0
562 -175 580 61 0
175 -88 -599 119 0
-623 -277 516 -116 0
526 371 -407 -592 0
330 158 -6 -124 0
44 156 53 -635 0
-516 526 534 401 0
-151 475 -192 615 0
622 105 427 320 0
321 -196 -154 -117 0
-530 -323 141 223 0
-242 297 -188 -557 0
-258 -405 -179 403 0
11 143 321 -253 0
550 -435 -452 41 0
634 203 668 -650 0
-437 405 482 310 0
-499 -138 77 41 0
54 21 -247 -224 0
-690 -613 505 -149 0
188 -443 355 297 0
-607 688 -213 608 0
240 -595 565 327 0
174 524 591 196 0
471 -563 667 437 0
-281 185 667 -238 0
534 -629 -617 -377 0
-593 -608 -192 691 0
59 355 -8 -481 0
7 572 565 305 0
-410 -203 355 -468 0
73 244 -560 12 0
-264 -566 287 368 0
345 104 201 -194 0
99 -596 424 214 0
-102 -27 611 421 0
440 -235 412 365 0
-258 67 -504 -244 0
138 -430 499 -515 0
204 695 -177 -222 0
65 539 -638 670 0
691 454 -699 328 0
-452 325 596 -434 0
-90 314 621 211 0
-516 -413 166 247 0
-596 266 690 27 0
20 -250 -428 -305 0
-46 -133 -70 513 0
-459 -47 -138 531 0
-546 457 -657 648 0
-490 -12 -215 -681 0
-508 -262 -219 -210 0
-47 -22 -302 -405 0
241 -345 -376 -342 0
484 151 -698 131 0
-476 134 -673 88 0
-615 573 597 -568 0
434 -488 -449 380 0
-132 219 -622 -550 0
652 -165 -43 -285 0
-259 327 350 514 0
468 229 -288 117 0
593 -674 413 320 0
-357 -497 327 523 0
553 653 -334 245 0
314 -616 196 -242 0
-32 -421 -234 -529 0
56 -480 651 -77 0
57 355 368 699 0
274 290 37 461 0
467 480 516 -539 0
-139 -109 33 40 0
23 -634 -318 -507 0
413 109 -455 376 0
-98 -24 319 -566 0
280 -153 444 -130 0
-265 -577 -562 -425 0
-475 -478 15 237 0
-676 -301 230 30 0
543 -580 629 495 0
219 -655 59 268 0
453 640 -610 513 0
-165 291 -479 23 0
-197 61 -96 -524 0
-271 366 -389 -381 0
-83 -487 59 -23 0
-159 -363 391 700 0
-339 216 390 -142 0
75 -345 265 112 0
-656 -141 29 389 0
209 -55 34 -370 0
168 663 435 -449 0
-205 574 -272 686 0
112 321 -685 -637 0
-88 -547 282 338 0
-549 158 -412 543 0
-277 -627 595 -673 0
-356 -569 -380 -608 0
-686 644 -342 661 0
508 324 47 510 0
-646 462 -217 -370 0
-186 -288 485 -505 0
-400 -271 602 -252 0
9 396 -582 545 0
129 688 -469 373 0
576 -361 668 -298 0
-23 -261 25 -480 0
-203 -618 446 45 0
-228 -145 -648 259 0
-370 -685 -107 -489 0
135 381 61 665 0
305 253 -691 -650 0
-159 471 -571 -587 0
-512 -606 271 -584 0
363 -639 468 520 0
505 -295 -698 -675 0
-149 700 -287 25 0
-133 488 -397 -105 0
683 -284 42 -285 0
168 566 387 -237 0
-140 -135 545 618 0
347 602 366 174 0
453 -431 503 -494 0
272 -223 235 -655 0
-452 533 -222 623 0
-353 -123 -43 -13 0
-264 199 644 642 0
-583 -683 -392 -352 0
-255 115 27 -365 0
465 228 -32 682 0
-239 -479 -461 -234 0
-282 88 319 530 0
465 686 -383 -622 0
-558 -19 -1 623 0
490 88 161 -125 0
252 611 -659 -332 0
336 636 -639 -529 0
-636 31 203 172 0
445 -4 -620 290 0
-287 125 227 -25 0
-358 529 497 -333 0
-347 -589 100 -311 0
-255 -401 -423 637 0
-348 107 -554 128 0
232 -667 -567 277 0
-266 -411 150 109 0
-620 207 588 294 0
-387 460 263 35 0
430 -578 524 369 0
89 -56 405 662 0
297 94 -517 459 0
-325 222 -466 -485 0
113 442 273 365 0
-265 -253 -450 -560 0
-604 206 -399 -353 0
-594 -183 443 604 0
226 685 163 -481 0
373 -399 -496 -190 0
350 -469 676 -519 0
146 -313 -186 349 0
-1 342 -503 551 0
32 208 276 -75 0
670 -194 129 -603 0
696 -617 -455 -452 0
46 -26 -511 -279 0
456 -33 53 -285 0
317 -291 202 397 0
-391 245 516 470 0
-502 -309 7 -333 0
537 -153 -298 -553 0
-371 240 643 66 0
178 -429 213 -265 0
225 591 -600 -537 0
-25 15 473 -126 0
-280 524 -265 -360 0
683 -273 -114 -476 0
-562 -604 237 591 0
-380 451 669 -411 0
-410 382 -486 -444 0
576 362 -129 9 0
601 447 -319 -338 0
295 587 639 551 0
148 -480 -370 -307 0
568 -371 42 -425 0
-696 238 -661 -539 0
491 -144 313 -425 0
-90 264 -254 57 0
-245 -248 21 -81 0
22 -411 363 -258 0
137 -297 -365 -158 0
-624 469 -260 -355 0
464 -586 560 205 0
337 -358 407 435 0
209 556 -589 -364 0
-476 670 547 145 0
615 630 -598 -114 0
-435 618 -314 -650 0
550 -291 -141 442 0
469 196 445 -493 0
5 135 -671 507 0
636 -321 693 -131 0
104 132 128 375 0
-392 -176 -313 -278 0
436 418 223 -648 0
535 -160 -295 194 0
-94 -284 -15 241 0
-540 -291 -68 -689 0
-305 -195 355 51 0
-218 253 189 528 0
-477 -26 144 -272 0
-635 13 -480 -496 0
248 -133 -501 -487 0
-452 -408 67 -449 0
-318 -571 110 -296 0
109 348 700 253 0
622 273 184 -474 0
658 -101 -213 -261 0
162 484 -634 -553 0
-295 458 485 194 0
-618 -619 45 -227 0
453 355 -614 249 0
90 -295 186 -87 0
182 -35 -401 -670 0
-283 -258 -195 -404 0
-165 -577 429 603 0
8 -647 58 -475 0
-513 -245 327 161 0
-457 -559 328 -685 0
-382 -224 -41 -15 0
650 -144 351 527 0
339 -291 -413 379 0
-474 670 29 -248 0
294 388 -363 665 0
292 67 -343 -304 0
507 209 -322 70 0
-512 406 583 691 0
-419 336 422 13 0
-235 225 -459 -323 0
-263 -653 144 -91 0
-95 272 -347 362 0
-465 -657 -134 -236 0
-440 315 -220 -59 0
499 -159 184 -605 0
-654 -153 319 -688 0
90 690 684 -313 0
443 -694 662 684 0
480 -552 -218 -676 0
639 -25 -52 449 0
-387 623 317 576 0
579 649 317 216 0
17 -543 335 -344 0
489 189 -387 390 0
-147 336 -459 163 0
-423 -554 621 -170 0
-198 -689 697 -247 0
-408 108 48 362 0
90 -560 50 388 0
533 -535 -483 631 0
261 20 252 697 0
86 -533 -438 637 0
-280 49 575 554 0
558 -29 -125 405 0
139 661 209 506 0
625 565 -3 94 0
79 -395 -221 99 0
-247 -594 -102 373 0
-405 653 223 -696 0
-172 497 47 -188 0
-36 -116 188 -638 0
-680 468 498 -651 0
6 108 -672 -596 0
351 218 -179 -302 0
523 -493 117 -382 0
634 -119 117 477 0
12 -137 -495 -145 0
48 639 -244 673 0
207 -290 -643 -582 0
-683 698 13 -26 0
78 560 -240 -143 0
165 370 -152 -672 0
448 -479 578 355 0
-172 396 -506 -696 0
114 116 -444 -480 0
-613 -8 -184 -328 0
174 -443 -454 240 0
86 -495 347 -214 0
-203 -80 623 -535 0
-331 -328 3 -541 0
502 458 -64 239 0
51 8 573 -671 0
676 -302 -42 348 0
-87 510 168 -453 0
-141 562 192 -579 0
12 -370 -111 -93 0
-201 393 -547 -32 0
-311 43 411 323 0
-487 -80 91 472 0
451 581 447 -523 0
261 -58 -459 677 0
-253 -556 -674 534 0
281 -344 -417 512 0
599 347 -133 -275 0
-157 -97 461 433 0
478 42 -133 157 0
236 -313 463 -517 0
