c Random CNF formula
p cnf 800 4800
-655 -115 26 760 0
-559 -90 -605 433 0
575 -204 -734 -666 0
-7 -778 -164 715 0
-105 -95 -390 -100 0
-471 -550 128 388 0
-371 592 197 722 0
-239 104 -390 -285 0
687 274 -719 700 0
168 474 389 277 0
787 795 -58 -235 0
581 -736 323 -218 0
272 -143 253 763 0
409 -371 -225 -142 0
643 -164 697 -433 0
258 567 12 -697 0
-657 -349 115 301 0
270 -513 781 183 0
-520 -624 204 157 0
-1 614 332 501 0
315 246 -60 -247 0
-71 779 546 -785 0
541 622 434 217 0
-409 688 -666 -383 0
-347 -22 -603 568 0
-235 -70 33 -339 0
-136 741 585 -591 0
-100 -675 442 363 0
662 101 -63 -413 0
-550 -460 144 -433 0
564 101 52 668 0
-243 171 417 -498 0
-3 400 272 466 0
-678 -736 -499 159 0
-63 -766 322 59 0
-59 -521 83 -191 0
-584 -253 593 609 0
324 -268 -210 686 0
308 -469 324 770 0
103 -76 -551 -219 0
-251 379 -292 162 0
670 -542 9 684 0
138 -271 -119 -110 0
352 209 -704 650 0
53 -95 -650 -434 0
269 -166 -760 -453 0
708 153 -559 -37 0
-316 -374 -41 367 0
417 -636 -768 159 0
182 -423 26 184 0
753 -255 274 164 0
-228 205 -472 -359 0
198 409 -337 286 0
410 -696 550 -340 0
-272 40 -112 611 0
-524 -119 -395 591 0
552 -704 -737 760 0
339 639 -322 -680 0
-419 -335 -413 714 0
694 -767 179 -631 0
216 -441 -594 -622 0
-485 754 174 -675 0
-770 -241 -689 -318 0
-487 626 787 75 0
-394 507 410 250 0
-110 798 436 -225 0
256 125 468 137 0
774 -454 628 -737 0
-163 -762 487 461 0
-534 -497 -642 -245 0
-328 -554 -83 -142 0
-425 -418 339 -556 0
789 599 -713 -21 0
361 306 -772 400 0
-560 -618 -226 -500 0
696 415 742 170 0
-404 607 -578 -679 0
-52 -267 389 -336 0
-771 432 -259 84 0
230 -666 -71 -800 0
-21 637 157 -245 0
-717 263 786 -378 0
-168 -319 111 593 0
407 733 -204 78 0
309 701 -615 124 0
678 -380 -71 -519 0
444 -371 651 471 0
-277 -631 552 -794 0
-252 -89 286 -462 0
-30 -507 -333 -187 0
-611 719 -283 570 0
501 569 -777 247 0
96 -302 227 -415 0
544 -353 -436 -764 0
-237 124 739 198 0
-197 222 757 496 0
-103 -199 304 -233 0
47 -56 567 -300 0
-13 -588 292 -481 0
-490 117 67 -411 0
-577 312 88 255 0
-232 -795 536 390 0
313 583 636 -62 0
-217 -271 -677 -84 0
-462 -706 609 482 0
465 73 704 240 0
-203 -436 -118 -558 0
62 170 -315 -610 0
706 312 -717 -413 0
41 -443 -753 331 0
590 -602 -22 784 0
482 -532 668 453 0
-504 -94 -482 -357 0
422 -711 508 -296 0
-91 323 259 332 0
-2 -674 -556 474 0
-641 453 779 -53 0
716 497 -125 -30 0
-565 15 566 -418 0
121 -664 158 -511 0
495 -484 250 468 0
140 -72 283 792 0
3 290 744 306 0
-458 552 -496 354 0
-194 715 -245 -586 0
485 723 391 -396 0
-38 -130 515 -605 0
-468 16 -740 -148 0
-272 -347 -639 710 0
547 390 325 -642 0
71 241 647 -701 0
101 -779 649 721 0
-48 -333 -58 -301 0
-699 185 175 -180 0
598 -147 238 473 0
-477 -295 -694 560 0
-655 -435 707 257 0
-110 -243 391 -586 0
675 406 282 -9 0
621 -764 509 -294 0
195 636 257 -695 0
-100 -643 662 41 0
-93 -303 335 766 0
375 -544 514 -280 0
-303 -765 347 -118 0
693 742 -691 407 0
-15 271 550 127 0
-654 -381 111 692 0
625 -227 664 65 0
-120 -144 -47 39 0
139 398 465 -380 0
761 745 159 425 0
-287 -34 -707 -380 0
-703 -377 -558 -661 0
466 94 -679 218 0
-250 129 -579 -211 0
239 337 -793 152 0
-134 554 -257 -179 0
-244 -603 332 17 0
764 66 -488 460 0
630 -45 745 -675 0
-491 412 -437 703 0
-330 623 152 68 0
-391 612 -544 302 0
671 -667 -788 -565 0
348 -465 -409 -426 0
-157 -704 -486 69 0
382 134 -570 -62 0
363 682 769 434 0
-361 107 -592 -520 0
-570 -377 -118 781 0
786 -637 629 692 0
274 -30 -185 -280 0
-147 580 674 -411 0
-544 -221 -386 -430 0
-582 611 -87 -54 0
454 -678 -435 498 0
354 441 114 -291 0
-226 -405 -614 -57 0
-262 297 -336 -123 0
721 236 -513 573 0
44 447 20 471 0
-727 -656 -428 297 0
-633 472 -707 371 0
537 -81 406 -318 0
-649 117 -544 523 0
-661 -152 242 106 0
672 -78 182 792 0
698 -579 659 -651 0
451 70 481 -453 0
-76 -318 -473 463 0
-93 630 609 520 0
-43 461 586 668 0
-462 106 -352 732 0
-450 -537 -536 -625 0
347 696 -613 -54 0
695 396 291 259 0
-342 -84 597 680 0
402 -133 -610 726 0
131 687 -720 757 0
-521 371 -19 372 0
-197 232 -141 159 0
-757 540 -39 -678 0
167 186 710 -790 0
374 693 737 244 0
240 547 245 -317 0
695 585 452 -473 0
166 -205 -620 -142 0
-106 729 -529 128 0
151 448 94 -228 0
-406 -515 -383 -242 0
102 -732 -666 344 0
-713 143 778 -723 0
221 -154 562 -745 0
125 49 -245 430 0
512 612 549 -17 0
2 -630 362 247 0
370 70 539 -558 0
482 -45 -651 397 0
354 247 751 -673 0
46 -361 560 -347 0
713 -491 647 -187 0
301 -207 -45 -205 0
557 -485 -260 38 0
672 -340 -280 -128 0
396 -348 192 -509 0
-85 745 -435 -81 0
-106 -82 336 -677 0
455 360 458 -44 0
655 -59 77 688 0
32 -147 -623 695 0
-376 -371 -393 -581 0
-455 -782 -79 -588 0
-117 -27 754 -191 0
267 -721 457 -220 0
-126 139 76 463 0
-328 684 356 727 0
-729 -727 -718 654 0
-143 243 -506 27 0
-133 627 89 68 0
-788 -420 -589 -76 0
530 353 132 -799 0
-515 -57 -128 531 0
-355 532 291 -81 0
311 -630 547 -96 0
-675 640 -738 620 0
84 47 657 -790 0
655 32 -510 -643 0
-702 -416 -305 -465 0
-209 349 622 148 0
409 -134 -779 -380 0
-461 254 145 -100 0
-164 336 -592 739 0
-511 -316 -510 -24 0
-598 362 50 52 0
-293 550 9 111 0
375 -47 411 -53 0
-517 462 783 -564 0
100 -404 -383 348 0
-412 513 42 47 0
-153 621 -528 144 0
758 307 -608 345 0
487 18 378 340 0
743 -705 645 28 0
-593 -592 234 739 0
-794 390 152 -698 0
-452 -322 429 156 0
483 754 745 64 0
490 -539 386 322 0
693 791 739 -698 0
-253 286 -572 -306 0
-213 -707 722 501 0
281 -295 125 588 0
-792 150 -298 -44 0
-263 766 491 220 0
141 -112 631 759 0
-654 239 -54 103 0
6 564 -162 417 0
775 295 -329 293 0
548 -757 741 -39 0
38 407 508 191 0
-10 306 -582 618 0
557 -537 -506 -138 0
-167 -749 470 664 0
-582 691 776 198 0
528 -336 -89 -411 0
-255 7 268 -393 0
741 587 -12 -268 0
315 164 416 -703 0
121 -655 -303 -377 0
766 621 383 426 0
224 781 -254 -697 0
-721 371 80 -578 0
550 -154 169 336 0
501 -94 523 -457 0
60 573 -474 689 0
-764 -224 -593 75 0
-71 484 33 294 0
-662 431 -384 -392 0
678 -553 137 -670 0
131 746 -229 4 0
-435 -545 -389 236 0
743 -784 116 33 0
-17 -247 212 69 0
-50 -251 -759 46 0
-58 144 516 297 0
-792 -689 329 -243 0
308 282 63 571 0
438 570 508 49 0
-327 -714 427 -419 0
231 308 725 148 0
-571 -543 138 398 0
380 -95 -549 742 0
41 75 -193 -780 0
341 311 -16 217 0
491 -249 -713 -619 0
290 -390 -478 547 0
478 -101 -740 -481 0
-47 -577 227 760 0
-428 -303 157 -201 0
671 -702 346 264 0
-472 173 -751 361 0
-556 658 61 537 0
783 -7 423 -141 0
518 467 383 -62 0
500 -17 7 -545 0
294 18 515 -715 0
-99 537 153 -247 0
-407 -81 383 -416 0
-83 -670 -666 -778 0
-653 10 720 -176 0
-98 541 44 -236 0
48 77 -701 288 0
-323 17 213 602 0
307 167 578 247 0
394 774 -758 144 0
-355 -55 101 448 0
-610 -407 793 -335 0
-365 567 -385 443 0
-303 -253 731 76 0
-758 -399 -325 -370 0
-277 -105 136 -90 0
-27 92 -363 -568 0
-299 424 398 798 0
-586 -534 -174 -702 0
-65 -172 -446 -283 0
253 -739 -641 -508 0
406 -341 -636 390 0
-667 609 -140 -308 0
408 -327 299 -753 0
-386 288 403 374 0
699 -787 564 -28 0
299 -710 -71 -419 0
-158 733 -434 -387 0
-519 709 429 557 0
609 654 -88 112 0
46 577 -661 694 0
-109 11 101 265 0
-227 457 384 -401 0
-26 495 -108 303 0
-146 -357 -320 -352 0
-449 -740 714 -464 0
352 664 112 694 0
-566 -164 339 574 0
-191 656 674 -443 0
-440 -399 5 722 0
-592 -105 -550 192 0
502 541 655 -321 0
469 -633 177 -690 0
-138 -321 121 245 0
-429 -611 142 589 0
-661 -178 -569 -171 0
-55 368 10 497 0
-507 419 -702 -504 0
-32 -780 -226 300 0
-580 761 792 -785 0
-557 376 556 775 0
-105 754 -670 -770 0
90 -450 121 795 0
-728 -625 -648 -439 0
-61 584 -360 546 0
297 587 -274 527 0
-422 61 -284 672 0
-254 780 -693 -403 0
-463 78 -649 788 0
378 466 500 -336 0
-470 -651 681 -715 0
-440 -217 507 -275 0
-497 -352 699 -781 0
-128 162 -452 468 0
136 666 -310 -163 0
-85 -381 -681 665 0
240 -440 -672 -94 0
-232 532 697 456 0
-433 -711 136 -490 0
-321 377 307 141 0
694 147 -71 -544 0
219 644 -767 -156 0
103 -144 771 -127 0
-144 254 284 661 0
798 -708 28 -675 0
402 303 -662 -56 0
-247 512 -654 -609 0
-325 136 -397 -583 0
-789 -75 -18 -602 0
408 519 -294 -644 0
-656 -550 -551 631 0
160 550 335 401 0
318 -716 -448 748 0
-119 465 627 -624 0
-13 -725 -141 719 0
-739 266 -171 381 0
-790 -31 344 440 0
-79 -509 467 -524 0
262 -792 106 -588 0
-13 251 -48 484 0
37 -567 -732 759 0
-328 278 80 -586 0
529 48 411 -71 0
-89 -567 468 9 0
249 476 378 606 0
-560 -779 -252 -155 0
711 -10 344 -2 0
-211 -543 244 430 0
-96 45 -238 533 0
595 -98 518 -137 0
-679 -134 243 299 0
-754 -335 -326 464 0
-599 -112 -160 109 0
-789 213 -463 316 0
-312 722 -714 -618 0
-255 -365 406 -526 0
415 -464 -570 767 0
125 -13 64 -800 0
646 661 -87 597 0
-203 662 455 -132 0
-473 52 -173 -588 0
437 -177 -363 -220 0
629 -635 632 -252 0
-90 287 393 -141 0
-557 20 -392 731 0
-515 -330 -398 277 0
798 288 60 484 0
-103 254 673 -247 0
225 590 -398 -364 0
326 -756 715 368 0
578 146 577 193 0
-180 503 -39 -93 0
-340 -629 207 134 0
61 -23 -152 601 0
374 -75 -383 -722 0
140 162 750 -448 0
-576 711 -629 -366 0
706 302 131 -182 0
790 582 34 -187 0
-580 -107 -509 -145 0
652 91 -726 -687 0
-256 -710 -70 -359 0
-751 -430 171 -424 0
491 -592 -667 777 0
302 -21 -327 -268 0
-750 77 561 96 0
442 -670 -169 -622 0
195 420 -714 -568 0
244 99 -51 -403 0
438 -90 -302 -678 0
654 -299 -84 -485 0
677 -272 94 -658 0
-457 -46 -270 -451 0
-771 -714 684 100 0
604 233 -567 63 0
-487 -587 242 -488 0
585 -530 586 -694 0
-172 -217 198 -130 0
-643 152 610 -265 0
570 407 566 -334 0
718 -639 -602 536 0
597 -777 -103 109 0
353 421 -271 -393 0
413 -148 -634 624 0
-708 -244 -51 -764 0
311 319 288 -504 0
308 -762 -454 793 0
193 453 217 417 0
528 -163 68 319 0
583 -30 -178 -198 0
-52 370 722 204 0
-127 698 -32 248 0
-601 565 359 353 0
-292 29 396 51 0
-663 -231 -694 212 0
786 699 10 -486 0
259 623 -313 -730 0
-358 471 259 -224 0
105 8 524 679 0
-290 -306 -701 -111 0
284 268 -672 729 0
247 59 615 414 0
-303 -266 429 415 0
-195 352 744 731 0
688 368 520 -308 0
-100 483 132 -759 0
-697 -344 671 -92 0
-340 381 -267 600 0
-598 -595 -636 73 0
543 -306 424 -56 0
584 -469 -147 -324 0
-182 -321 650 -60 0
783 -163 -502 -782 0
-440 -489 -393 -5 0
-330 -776 544 -196 0
-353 320 -133 106 0
306 298 -467 746 0
138 -351 502 368 0
20 -234 -230 745 0
127 -376 729 667 0
-639 50 -609 -678 0
-455 390 -127 561 0
-10 309 431 678 0
429 -108 524 -737 0
624 205 -797 -270 0
165 41 -562 -509 0
14 688 -92 -114 0
524 77 -741 104 0
271 476 52 -103 0
-694 321 437 -757 0
-142 680 663 -175 0
-751 -96 382 -351 0
395 707 -490 432 0
61 -164 107 -427 0
626 389 798 368 0
134 -495 -500 116 0
13 722 695 538 0
686 347 -532 536 0
494 -355 680 693 0
628 56 -12 -659 0
-170 -77 -770 504 0
564 -659 -388 413 0
-91 -511 458 -324 0
-423 -37 571 563 0
312 -521 -576 212 0
229 466 340 -574 0
464 -117 -100 778 0
299 -561 -535 -383 0
-735 761 -739 420 0
403 -221 -469 196 0
689 -603 127 791 0
-511 5 544 -754 0
521 800 -182 -709 0
615 -621 330 517 0
255 -281 -408 -352 0
717 767 -525 307 0
-567 648 223 206 0
136 728 -666 -183 0
361 576 -492 597 0
547 -293 -433 14 0
205 274 -769 -165 0
-303 209 -772 555 0
758 -576 230 761 0
-713 -295 -710 681 0
-702 -321 566 56 0
454 -231 649 722 0
-202 -795 743 -199 0
-178 -753 527 -123 0
-599 262 -6 339 0
612 53 -793 641 0
367 75 725 326 0
-164 -426 557 550 0
340 370 -301 224 0
771 -665 10 118 0
637 -250 41 -699 0
-263 554 742 290 0
-521 457 -499 -45 0
99 172 -792 551 0
-219 702 435 107 0
446 -663 74 -765 0
76 56 -183 -258 0
-398 -462 646 415 0
657 738 634 -65 0
-515 -109 297 -703 0
-405 -677 32 486 0
-559 303 650 148 0
664 -383 -12 567 0
-404 551 561 -88 0
-423 -662 525 -146 0
186 688 581 -56 0
-563 -75 298 -688 0
339 -366 132 688 0
326 -498 462 337 0
-374 -324 -439 173 0
447 -284 -369 -138 0
-794 313 -499 -565 0
144 552 202 270 0
520 647 -32 -596 0
267 -557 -553 484 0
-604 751 -298 138 0
-679 245 -629 -701 0
580 676 -150 754 0
-238 65 271 379 0
-398 481 -466 48 0
649 281 -760 -270 0
-602 670 -80 -530 0
-354 499 -494 -619 0
-527 -659 288 217 0
677 -236 -425 -339 0
-166 -663 421 -23 0
-525 -41 -587 151 0
614 578 653 20 0
222 -460 622 483 0
597 -786 187 -639 0
-465 -611 -605 -71 0
517 -701 430 154 0
-545 516 771 121 0
-2 -794 695 665 0
-440 235 494 788 0
-714 -590 -101 436 0
-291 -613 557 -419 0
-536 -121 533 -8 0
110 -159 437 668 0
627 -283 697 -407 0
-380 -573 -569 496 0
754 -142 676 -122 0
220 521 411 -347 0
399 -652 6 -94 0
270 228 380 -82 0
672 -534 294 -729 0
507 450 11 -207 0
-614 -523 -529 -716 0
1 -162 -89 283 0
-531 -16 -755 721 0
-597 357 -356 -284 0
5 268 180 -417 0
120 526 264 551 0
577 496 -789 -250 0
-601 -29 494 -120 0
719 236 -324 423 0
255 295 -96 409 0
488 -322 363 224 0
-195 -511 -755 -205 0
256 -634 -365 160 0
505 629 7 -783 0
-323 505 589 -282 0
-228 769 -591 132 0
515 -356 -404 703 0
324 -706 -9 -13 0
-266 -192 562 -270 0
511 -435 216 -430 0
185 586 135 590 0
-569 443 -391 201 0
181 432 512 138 0
499 -308 -257 -576 0
-221 261 -488 -645 0
-571 -264 353 21 0
591 590 -666 -665 0
-523 -500 794 -755 0
-149 172 -656 346 0
-82 166 352 234 0
405 -278 456 800 0
-424 -172 -189 24 0
-768 -82 216 -171 0
56 27 -790 407 0
-87 671 -400 -317 0
540 175 -30 -36 0
-554 279 562 456 0
468 -647 767 652 0
356 -494 -553 -233 0
311 11 -1 -536 0
-9 -705 -504 -774 0
-237 8 -562 -383 0
733 -755 -662 400 0
530 -783 628 711 0
-423 -193 -71 -187 0
-718 -638 504 -193 0
105 289 -276 -129 0
-506 223 351 -431 0
33 -339 83 -769 0
482 186 -197 257 0
-255 395 -790 454 0
-97 534 -682 -214 0
645 746 -44 763 0
-204 -370 54 -683 0
-172 -283 599 123 0
-708 487 -705 -611 0
703 -634 347 778 0
-110 129 500 -239 0
450 -751 -198 22 0
-497 724 -449 -573 0
-357 332 750 480 0
-71 -544 -159 -461 0
-654 -519 389 752 0
245 329 -739 65 0
510 -785 565 -158 0
536 -675 69 -45 0
498 197 102 33 0
-719 605 -263 51 0
-214 672 -504 82 0
426 -378 -726 -60 0
-312 80 222 -532 0
539 -673 255 -584 0
-109 -785 654 591 0
171 185 564 412 0
361 -323 564 333 0
332 -624 247 577 0
-369 -464 -459 -407 0
139 -310 -7 308 0
707 283 -567 -524 0
-365 160 -142 272 0
95 585 410 583 0
178 500 707 -720 0
749 591 -391 81 0
-445 427 124 -789 0
-797 -648 392 -56 0
-515 715 -227 -157 0
-610 -590 -517 -93 0
-85 -488 -586 764 0
-793 715 -134 781 0
201 -575 -631 -754 0
702 -590 -92 -116 0
-609 672 25 789 0
-453 639 -150 -452 0
776 -746 88 -116 0
295 -15 -352 -711 0
758 551 217 209 0
-145 712 716 -685 0
175 62 -291 206 0
-9 69 398 677 0
-20 -300 665 -396 0
-324 -497 612 545 0
730 -23 -41 254 0
-19 -356 701 361 0
283 64 641 -264 0
-569 -287 -231 156 0
534 -695 628 -641 0
320 -620 -338 460 0
208 142 -317 706 0
789 -149 672 579 0
122 189 326 -150 0
422 311 454 -764 0
-798 193 110 -135 0
-581 628 -237 611 0
-489 138 -515 -620 0
-486 -141 168 198 0
423 228 -761 688 0
-450 -632 -502 -705 0
43 -623 753 390 0
550 538 -657 722 0
-44 252 532 551 0
-646 51 195 -299 0
171 433 302 -628 0
662 -463 93 740 0
-560 -139 -403 424 0
-207 466 93 -257 0
751 127 -94 117 0
-745 -524 627 164 0
580 -676 154 -167 0
-317 -748 788 457 0
-4 -638 -784 260 0
623 -506 -244 -223 0
-615 7 251 -561 0
-190 -152 -57 669 0
-618 -306 -340 90 0
626 677 -709 -717 0
593 -369 37 96 0
-777 -438 564 -67 0
540 424 -538 215 0
645 542 90 496 0
438 624 -325 -266 0
577 -509 -533 747 0
-726 -298 199 2 0
-213 -631 425 -424 0
-656 -207 -707 289 0
-786 -7 117 703 0
180 -199 -339 -347 0
-140 494 160 -643 0
-424 761 -58 534 0
214 592 -702 340 0
288 32 348 -385 0
610 -120 -770 -316 0
509 -244 381 -463 0
384 -39 -797 -207 0
513 158 195 349 0
147 -788 101 -529 0
-731 -535 119 5 0
342 479 -48 106 0
-320 -655 215 329 0
-688 -121 280 153 0
105 -212 556 359 0
-588 251 176 -73 0
-30 -483 -692 -52 0
611 607 -645 707 0
-731 777 687 547 0
-96 716 480 -100 0
-238 -230 -148 632 0
-339 -333 -465 -500 0
175 -290 -787 357 0
-110 -334 -570 666 0
-245 -636 -250 -562 0
711 -606 442 -446 0
686 -80 758 -729 0
-569 -100 456 181 0
-611 790 -389 336 0
595 774 -652 -1 0
-631 592 -458 201 0
696 -312 -446 -736 0
-523 414 131 -302 0
574 -368 113 -289 0
-326 729 392 -416 0
193 -569 394 369 0
-138 12 -74 -664 0
140 87 141 658 0
436 639 -185 -466 0
191 435 -620 8 0
-421 -560 -591 -376 0
-595 494 708 82 0
-798 287 -477 -530 0
760 680 685 80 0
-352 548 -798 12 0
-432 362 302 -297 0
-578 -267 -63 645 0
-756 -640 -28 294 0
-259 -136 631 288 0
-606 757 -155 675 0
-497 -186 -541 34 0
158 -508 -771 423 0
-216 -592 752 -354 0
-476 409 488 -309 0
-700 723 -400 -486 0
460 392 -695 324 0
653 363 -443 -626 0
-101 262 671 599 0
-603 789 -200 533 0
-689 9 70 -13 0
-743 291 -258 198 0
223 -614 654 -125 0
673 -783 -664 -580 0
302 479 -677 -78 0
-684 -789 332 -264 0
-341 -62 265 -272 0
-403 183 -661 504 0
-109 -453 733 -266 0
457 -20 -510 -153 0
156 717 338 -401 0
447 -414 -746 -800 0
706 799 -494 125 0
-411 57 648 -663 0
471 -779 -785 -297 0
196 307 -713 -400 0
-648 -449 753 195 0
501 -399 65 554 0
-17 38 -348 -58 0
670 684 536 470 0
-239 74 -38 754 0
-47 -249 -719 -665 0
100 -468 626 -175 0
610 -631 226 65 0
695 412 -333 124 0
-219 -783 -47 608 0
-173 -714 379 -567 0
-648 628 -386 -797 0
92 -724 668 608 0
709 130 -212 147 0
-626 -709 39 611 0
309 -357 429 5 0
634 -371 780 -553 0
55 199 -116 -153 0
-687 -45 -56 661 0
777 465 -45 107 0
497 528 119 -73 0
-204 -766 -694 -334 0
-423 205 -385 -226 0
-222 -625 466 183 0
-277 208 -344 -131 0
477 -470 -429 -176 0
654 627 -175 592 0
501 -222 606 485 0
253 254 336 -445 0
-588 -6 428 -46 0
544 -404 -491 714 0
13 -710 -750 417 0
-93 17 492 686 0
-25 466 -475 791 0
-642 476 -721 649 0
544 34 304 437 0
213 702 -83 636 0
-691 -373 -53 -114 0
664 573 -722 -69 0
553 117 665 490 0
-772 763 780 -231 0
-56 65 382 -354 0
-545 -695 546 300 0
-68 193 -469 90 0
112 -169 283 115 0
643 24 -301 -427 0
-455 -756 661 -22 0
533 661 344 -422 0
-682 -714 -543 562 0
-176 -267 233 -496 0
292 467 -171 634 0
-726 -710 683 158 0
-452 267 379 189 0
152 382 -460 -553 0
512 -787 149 470 0
-520 340 663 723 0
588 683 -151 -579 0
491 -42 -143 695 0
-457 366 95 -335 0
-786 285 201 24 0
-525 404 200 503 0
370 -408 -152 -734 0
-360 316 -457 575 0
454 -296 168 -746 0
-602 -613 89 148 0
-68 -605 775 -385 0
570 -474 -728 -582 0
568 -503 44 -310 0
-28 3 158 -269 0
-682 295 -428 -184 0
284 505 69 614 0
644 -703 488 -711 0
-266 -167 596 -60 0
55 280 -370 -430 0
655 -79 -527 199 0
557 -331 324 -702 0
-548 594 -361 -148 0
-349 -167 -105 224 0
629 707 539 -545 0
-79 -120 -135 18 0
-612 -536 782 -351 0
-132 -711 -146 -705 0
-708 -782 -115 -80 0
-34 -676 -526 -608 0
684 11 -773 99 0
-190 687 360 30 0
357 361 165 -513 0
-593 -782 -15 542 0
551 5 743 -102 0
715 -604 190 451 0
-435 220 -527 -234 0
-533 -140 508 -781 0
-506 119 395 291 0
232 -568 418 298 0
-488 696 377 -184 0
-536 -675 693 88 0
760 -173 67 373 0
-126 239 435 743 0
-775 660 -410 -365 0
-286 -151 -787 466 0
-138 -31 102 756 0
-392 620 -696 -335 0
770 -533 786 -505 0
268 556 -352 -554 0
122 -393 -461 -323 0
-676 -799 -311 -724 0
-783 113 583 -692 0
-576 -161 519 58 0
-362 785 -292 -329 0
760 -598 -28 -784 0
366 -422 360 58 0
-705 -68 -313 -118 0
-433 582 528 432 0
387 585 -400 331 0
345 -509 -515 784 0
207 509 -651 -78 0
588 -412 232 -640 0
345 -280 -69 581 0
-668 310 -517 -308 0
640 -528 -465 688 0
192 591 512 -219 0
654 546 630 -788 0
-206 374 474 152 0
-421 -327 66 650 0
-263 -704 -616 -242 0
318 -476 498 -574 0
280 -140 30 265 0
-44 740 -498 -21 0
66 -417 373 688 0
144 242 115 585 0
794 -538 -258 509 0
338 599 755 -400 0
-110 -180 220 -282 0
384 -717 -116 -325 0
-149 -372 487 733 0
36 758 -679 56 0
317 655 718 -372 0
454 398 -9 403 0
775 -242 -305 -216 0
-786 -660 417 -35 0
-755 423 -341 -735 0
-268 519 68 -361 0
712 -29 -781 54 0
-4 411 -205 -644 0
-731 787 -665 782 0
-463 490 753 137 0
-204 87 425 377 0
230 22 24 572 0
-204 269 719 -173 0
-377 175 581 121 0
690 -507 122 230 0
-295 765 507 392 0
-290 -745 -694 -194 0
269 -242 633 -462 0
11 -481 -137 -332 0
-434 754 -612 263 0
483 363 621 -687 0
-260 -517 -635 391 0
-573 43 595 184 0
136 -92 -325 -728 0
-131 -512 288 -766 0
-780 -271 530 -321 0
155 -570 -674 -652 0
37 -482 267 168 0
42 -453 -366 727 0
-152 -127 358 96 0
-280 577 -680 600 0
185 427 79 -253 0
-698 697 -125 -404 0
30 -84 472 725 0
6 -338 45 672 0
583 -133 217 50 0
-561 -617 391 95 0
-92 -22 214 167 0
158 124 306 503 0
-618 -135 -368 -682 0
398 -488 -275 -577 0
-191 445 646 437 0
664 703 731 -159 0
-480 448 82 -490 0
255 536 438 303 0
-523 436 423 -97 0
-600 84 -788 516 0
403 -47 86 -427 0
-687 461 639 -272 0
81 -765 619 -266 0
-120 14 176 672 0
617 744 -499 311 0
-707 -692 -405 310 0
-713 -193 -28 215 0
552 -196 -89 -309 0
157 -757 720 456 0
-207 -302 584 402 0
426 508 -755 -593 0
498 526 606 -743 0
-732 -63 -541 20 0
428 485 -120 -507 0
-166 -295 744 197 0
702 -348 -617 733 0
-427 -690 669 -753 0
-213 -290 -708 -768 0
-504 -104 -426 -506 0
-268 366 694 163 0
-346 441 -117 633 0
364 -788 -48 789 0
528 619 -686 -107 0
774 114 -109 626 0
-520 -108 -172 646 0
-726 453 -781 -519 0
142 126 -207 450 0
-486 -350 294 -518 0
645 681 252 -156 0
440 424 420 470 0
454 150 -789 -11 0
-412 791 169 445 0
589 60 647 -731 0
698 -718 -567 312 0
-541 626 151 718 0
-634 668 453 715 0
-309 87 38 -551 0
554 -291 -219 96 0
-24 29 -553 -607 0
518 -114 750 -62 0
-775 667 -128 460 0
764 596 580 732 0
359 307 292 683 0
-533 756 254 -108 0
101 -151 -729 436 0
-488 220 457 80 0
405 271 599 511 0
750 -427 -167 148 0
-526 -542 121 712 0
-379 -122 -617 419 0
-121 -381 313 -384 0
604 -432 50 -313 0
126 -561 358 70 0
346 -387 -487 738 0
-780 461 -684 460 0
639 -420 -397 239 0
-454 -754 -285 662 0
791 725 -317 575 0
555 591 776 55 0
-20 -124 675 -545 0
723 594 -455 -87 0
-24 349 -448 -185 0
-118 -102 555 -173 0
418 -695 -174 -61 0
-400 -102 -328 146 0
124 54 -208 246 0
-395 118 -276 -63 0
649 240 -20 276 0
-668 -129 312 -582 0
146 383 -554 173 0
463 43 2 -476 0
-62 494 280 613 0
-218 600 523 -289 0
405 716 126 -144 0
517 326 699 -351 0
-679 330 -350 216 0
-662 -3 -624 488 0
-714 -721 501 781 0
552 -32 688 456 0
367 397 -182 -787 0
198 456 10 227 0
-197 93 -629 -641 0
372 38 -288 -505 0
654 -406 114 285 0
580 -689 -699 -618 0
266 -584 234 -536 0
-710 695 -546 630 0
657 -690 666 -54 0
-125 697 -531 478 0
-49 -285 -431 -546 0
586 -26 -756 -232 0
169 -338 -319 65 0
-607 -642 343 257 0
342 533 243 75 0
593 -128 88 63 0
-131 64 -453 57 0
-573 54 -302 391 0
-676 639 11 465 0
-348 -667 -692 -27 0
610 -731 70 608 0
263 -364 -432 493 0
-62 131 320 -599 0
-555 795 -150 151 0
-531 -601 674 695 0
56 433 -353 -201 0
194 -684 488 712 0
-580 -344 -631 307 0
44 508 -225 -4 0
493 -753 -787 340 0
-7 372 -11 -76 0
-647 -600 -784 -369 0
269 -737 -179 -348 0
-269 104 22 -694 0
-216 -313 -468 246 0
-639 445 -729 -67 0
-546 -388 712 384 0
782 -631 -602 -194 0
645 287 -130 -521 0
-482 -680 630 67 0
-384 511 532 -476 0
-507 486 275 -596 0
-225 -208 463 241 0
-384 -261 -564 -87 0
598 -43 -477 -525 0
-510 -325 -280 -392 0
85 -302 -514 -526 0
122 -74 369 -40 0
-764 787 -700 282 0
-734 -758 557 268 0
414 -416 594 776 0
153 -408 -234 233 0
566 -776 -480 740 0
-440 -789 715 -428 0
-592 132 313 -756 0
-430 436 703 -771 0
-24 582 -33 143 0
618 -623 -588 401 0
193 -487 112 -337 0
-107 692 -567 -182 0
-72 396 -291 -211 0
531 -12 -176 -335 0
-550 429 490 -761 0
211 -318 443 -727 0
-208 -515 734 -702 0
-409 620 -253 -539 0
41 755 -94 295 0
-305 -401 628 -180 0
394 -675 188 -716 0
-162 281 644 551 0
223 506 -422 -781 0
-785 -799 334 -420 0
75 -655 712 692 0
-407 39 -11 257 0
497 -473 70 -85 0
286 -166 -175 19 0
-173 -80 -688 -782 0
-732 36 692 546 0
657 -679 -734 -676 0
5 50 -791 -387 0
94 -17 -432 29 0
226 -99 681 172 0
331 576 -642 -195 0
-238 -219 109 -366 0
218 -470 226 -68 0
224 421 -309 786 0
583 176 258 98 0
-790 711 137 341 0
-683 494 -70 344 0
760 -239 -516 602 0
-128 -317 -243 -756 0
-511 304 -207 156 0
-455 757 337 138 0
-425 664 -296 -769 0
553 56 -681 255 0
534 -330 -188 453 0
-54 -650 145 210 0
-210 -242 -520 -81 0
-435 181 621 -255 0
-493 -82 -369 408 0
-444 -779 160 494 0
308 -610 -551 -157 0
-291 -385 576 -621 0
195 -5 -14 -513 0
-405 761 383 -394 0
-40 128 395 580 0
770 740 -357 -522 0
-395 -435 754 253 0
693 -29 -715 682 0
261 254 -617 593 0
660 729 -394 408 0
434 170 438 259 0
601 316 752 -422 0
-587 -796 353 147 0
-7 173 -504 -2 0
-296 -751 -442 -175 0
515 -113 -462 -581 0
-778 197 -266 419 0
-82 -301 -88 -387 0
-497 -689 779 104 0
43 -100 217 535 0
-273 -498 -485 776 0
-323 246 370 682 0
-103 4 468 -716 0
126 -544 -287 717 0
-487 528 424 677 0
18 649 369 -47 0
497 -410 757 628 0
488 -675 -717 -103 0
-533 -586 -734 517 0
562 -479 173 -457 0
-175 -772 676 -717 0
-335 -393 -785 288 0
127 -682 140 -548 0
-230 -590 785 616 0
743 391 -670 -658 0
-266 -119 298 -90 0
119 587 377 -131 0
64 605 -549 -195 0
696 -130 -533 680 0
472 -324 -149 304 0
-150 -765 682 720 0
281 -724 -588 490 0
-61 342 157 734 0
54 -795 184 500 0
-164 23 562 402 0
-401 74 -541 745 0
404 100 135 332 0
-727 -312 469 -671 0
-149 215 -224 767 0
105 -695 152 386 0
99 -365 486 -184 0
-445 -153 -643 -740 0
705 611 177 669 0
-92 797 -475 -666 0
120 85 -125 501 0
587 492 -281 -711 0
661 -720 -445 306 0
-551 190 416 718 0
501 66 532 599 0
213 675 -121 -186 0
322 126 -41 -132 0
772 -36 87 -128 0
-674 1 255 -308 0
-547 -456 144 591 0
621 552 -523 -215 0
146 -307 -221 -138 0
-638 -433 77 -564 0
86 -261 -693 436 0
-276 -649 714 662 0
-620 168 -430 158 0
254 80 -277 -128 0
-92 372 -342 -797 0
387 -228 388 108 0
-603 502 -98 -542 0
102 -50 -175 326 0
-545 -565 -609 413 0
-160 674 -130 147 0
380 -725 -797 -256 0
-363 -480 515 294 0
235 -313 -651 -90 0
82 -79 -748 246 0
568 505 -11 -435 0
-702 -694 -546 715 0
8 -732 436 720 0
541 701 624 44 0
-537 -231 -180 -77 0
508 -389 175 383 0
-785 -121 -298 307 0
404 223 313 659 0
500 -59 -365 -7 0
-740 -191 -412 364 0
-158 421 -127 -500 0
384 307 -374 439 0
-673 -450 -166 144 0
-204 -114 195 292 0
165 683 -204 -491 0
-508 699 732 131 0
760 399 -135 -113 0
-14 786 -701 243 0
-9 -445 -492 297 0
-747 -524 -192 256 0
683 440 204 486 0
186 -194 -606 -645 0
197 -150 -437 -19 0
-314 -717 -649 -237 0
-53 312 113 -276 0
-49 187 -42 -1 0
-622 -104 -442 -190 0
686 -14 -700 566 0
761 -798 -604 542 0
90 -109 134 645 0
-671 -196 198 722 0
-309 743 -486 -780 0
564 729 259 778 0
460 -645 -735 121 0
-516 23 -171 614 0
63 -711 195 759 0
77 170 -449 769 0
212 189 -4 164 0
526 -467 516 -725 0
-275 566 -122 176 0
285 -137 277 53 0
2 -665 -356 648 0
-563 271 -740 -137 0
11 -365 225 749 0
797 800 598 -109 0
-642 -650 -619 -565 0
-645 771 -405 -160 0
-491 96 -508 186 0
-747 -185 -664 -289 0
-623 -193 72 147 0
103 742 540 -141 0
22 113 -14 782 0
-275 147 643 -615 0
-754 -347 725 -88 0
-168 -315 340 491 0
127 -22 46 -106 0
-2 -230 25 -233 0
701 -394 -704 -733 0
105 -289 366 79 0
-45 -620 -155 -183 0
684 -704 -309 640 0
678 378 272 729 0
-797 -672 151 328 0
69 -116 -592 438 0
-187 -786 395 -362 0
652 -342 142 670 0
-505 546 -550 236 0
-711 -767 -225 720 0
372 -572 -486 137 0
-798 143 302 472 0
249 -216 230 -58 0
-751 27 713 -435 0
-609 -162 -31 151 0
-427 -154 784 187 0
-482 422 -740 -346 0
62 658 -33 619 0
697 466 568 729 0
434 161 -279 -95 0
-634 58 225 402 0
710 -480 -489 -321 0
-381 -663 -435 200 0
-344 -29 -246 -289 0
317 -193 -565 207 0
-579 -46 578 -496 0
366 -770 -290 -408 0
-133 720 691 100 0
794 -154 25 -602 0
-166 156 699 -475 0
221 -698 670 145 0
747 -624 668 -536 0
369 639 -442 -41 0
626 622 -77 -157 0
-785 -317 -561 -90 0
-70 -287 591 -373 0
485 -263 -782 453 0
-41 373 294 -411 0
-525 -640 -322 383 0
-699 44 636 660 0
-159 -108 -298 -385 0
-474 686 96 -358 0
88 185 750 -111 0
337 -67 325 -351 0
-286 -466 40 -559 0
-33 616 793 390 0
219 56 -217 24 0
-86 -146 71 281 0
-538 -220 686 -266 0
-772 -305 -169 204 0
165 714 448 364 0
612 204 -80 741 0
-752 -761 -755 -751 0
-325 117 691 417 0
129 -650 -461 655 0
-431 -714 -560 793 0
696 -591 15 380 0
128 -717 -512 665 0
-437 -536 -784 -344 0
-610 167 556 -447 0
291 719 -636 102 0
632 422 107 509 0
-516 -596 -34 -684 0
391 -118 201 -481 0
-661 -721 -759 -406 0
675 -271 315 -425 0
27 158 -384 532 0
-441 248 570 401 0
-592 440 -132 -652 0
163 -448 -237 102 0
402 -781 -643 -267 0
27 -448 12 644 0
81 -586 -392 26 0
367 -192 246 -669 0
799 -388 789 267 0
-654 594 -106 -114 0
185 96 -80 -507 0
23 -424 76 -499 0
-322 -649 -462 165 0
622 -33 121 352 0
163 -535 -760 -261 0
525 -780 -157 -222 0
226 -86 -746 709 0
-357 726 -565 668 0
-410 198 257 178 0
-106 598 785 -602 0
-457 -434 -611 -766 0
205 581 -362 383 0
-524 260 601 420 0
-361 -408 31 -118 0
-75 221 -673 -381 0
-12 735 337 219 0
395 -291 -617 218 0
-688 77 -588 -662 0
-202 -51 -506 -511 0
-616 -335 -606 393 0
-590 5 -473 292 0
-541 -41 346 -661 0
-309 -282 325 -772 0
49 -403 306 714 0
-383 633 -106 30 0
-705 -742 447 -232 0
-551 6 -705 54 0
77 271 -338 -705 0
-142 598 472 123 0
-424 653 458 685 0
-288 -330 792 749 0
362 572 249 -676 0
507 -62 -218 -14 0
349 214 605 -780 0
-465 -672 158 -517 0
464 -636 -526 -208 0
-315 592 664 -105 0
-472 192 -274 -30 0
-564 -87 -363 -442 0
-452 -280 379 -101 0
-194 413 181 -609 0
-52 -662 -255 -114 0
-68 545 104 -283 0
-104 -226 752 -709 0
-295 -723 611 752 0
-757 313 -705 -245 0
-467 -146 -14 -683 0
79 175 696 779 0
-501 -254 484 -113 0
234 538 -516 172 0
-344 464 503 -753 0
470 14 362 309 0
611 496 -116 277 0
-226 -676 146 366 0
-369 212 763 92 0
642 696 -558 461 0
-358 340 -401 -604 0
-533 719 352 628 0
-356 296 -113 -9 0
-297 -639 -572 -681 0
465 -42 -223 -290 0
-361 -677 -1 52 0
682 788 -575 159 0
-443 -600 -83 298 0
653 -396 -433 -409 0
319 -178 578 447 0
205 -257 -139 427 0
-644 473 -559 -188 0
453 711 -321 -516 0
431 -421 473 -29 0
144 -630 310 249 0
-301 55 -774 403 0
-531 472 56 -87 0
100 298 -580 494 0
524 758 735 55 0
140 -229 -692 656 0
-7 -497 -639 705 0
-533 -100 254 -210 0
125 308 415 496 0
628 -698 450 -674 0
763 674 -247 -175 0
-297 684 -103 603 0
-110 -476 -427 -436 0
595 311 -35 661 0
-364 -143 -480 741 0
516 216 -358 -724 0
-672 737 -577 348 0
675 311 -404 -70 0
675 185 590 -726 0
332 603 -595 -357 0
751 -163 238 -99 0
-238 791 751 -243 0
-431 -66 64 -627 0
384 -622 647 -31 0
-653 -588 570 -205 0
760 -166 445 542 0
685 99 -209 -35 0
560 74 349 190 0
195 -213 585 486 0
-69 -450 -438 641 0
-306 104 -121 -511 0
-297 258 -400 -721 0
548 590 -248 -531 0
715 114 597 -483 0
432 -268 -206 343 0
-338 -776 680 64 0
720 784 37 355 0
-83 -565 -491 133 0
-666 359 442 -490 0
57 27 793 201 0
566 494 -54 -397 0
142 119 -449 -121 0
-448 -60 -244 238 0
550 -582 -47 -16 0
-450 185 290 45 0
133 621 -408 491 0
211 507 723 -753 0
-310 376 799 -565 0
-715 555 516 107 0
287 81 -209 141 0
-126 -382 -743 146 0
-117 22 -511 35 0
-62 286 -625 -394 0
-211 -389 -189 676 0
357 27 624 773 0
-606 222 -776 -29 0
747 754 771 59 0
295 548 475 -435 0
-391 -479 764 244 0
-88 256 -790 -556 0
276 676 -257 669 0
-329 -271 -184 455 0
-492 654 -570 224 0
-565 322 -66 452 0
-131 233 -646 -179 0
40 189 -701 519 0
-63 732 266 264 0
-46 615 -241 -359 0
209 334 -585 -381 0
290 -147 26 335 0
-384 -482 -302 -637 0
-606 -27 109 624 0
-596 730 353 -221 0
781 665 81 80 0
646 -562 752 429 0
622 -484 -676 538 0
250 -337 -249 787 0
710 -247 -456 751 0
79 -371 -670 496 0
129 551 251 796 0
-294 -350 322 121 0
648 -792 -203 -185 0
-568 729 482 -761 0
171 75 136 -528 0
412 -714 571 248 0
606 -624 632 -111 0
460 -419 646 461 0
752 188 742 -785 0
8 -608 -379 691 0
-603 -287 -792 100 0
-538 -594 521 437 0
-43 -753 749 -216 0
-356 -292 -170 -122 0
266 621 -772 -109 0
521 -773 173 29 0
-200 -7 501 -27 0
-456 -534 130 465 0
-456 -443 -506 270 0
363 -81 763 -228 0
646 754 -526 689 0
-444 103 723 534 0
-37 650 643 -9 0
-201 -272 -482 -156 0
651 -91 -529 741 0
-214 -728 -183 40 0
654 -358 -496 -544 0
300 -685 -497 -502 0
99 -225 -116 -774 0
436 119 -181 -476 0
132 793 -496 -501 0
221 -419 -63 -576 0
453 -436 409 -267 0
-47 316 459 420 0
-113 629 626 -338 0
-389 -93 800 -722 0
51 532 216 -371 0
736 -235 -298 166 0
14 -37 -21 -774 0
-161 290 -309 -25 0
-127 387 -672 -411 0
76 -517 -740 721 0
620 -156 98 754 0
-332 -436 -525 -762 0
-672 -591 483 386 0
495 -292 720 547 0
-382 -782 560 -732 0
238 458 -379 489 0
-86 98 575 -174 0
413 632 -485 536 0
-259 -422 -319 759 0
-417 6 -275 -707 0
668 242 330 473 0
-84 -108 -436 717 0
125 -171 203 -449 0
642 538 -499 -144 0
-446 -302 738 693 0
170 145 298 -536 0
-620 -258 484 474 0
139 -169 -537 -733 0
-69 6 320 -719 0
-63 -640 480 -609 0
-644 15 -198 282 0
377 640 786 -413 0
-607 -157 106 -749 0
-535 602 661 785 0
-755 -631 -685 -485 0
-630 -151 -147 169 0
141 -524 451 -436 0
-574 -403 -387 793 0
544 81 620 220 0
448 -574 -453 502 0
668 357 183 -26 0
435 219 -632 -574 0
-766 -11 201 -453 0
378 -260 -515 -14 0
-45 -713 722 -260 0
-736 -483 623 648 0
-559 107 -40 379 0
-135 85 -430 -123 0
558 -285 199 671 0
325 -727 -174 601 0
-427 684 686 63 0
-86 -177 455 -46 0
765 -4 -319 281 0
-89 -580 475 -91 0
-606 -642 21 -786 0
742 253 -316 698 0
136 -318 -55 -389 0
-232 -193 280 -205 0
-502 364 -593 373 0
-175 38 600 -395 0
-662 699 296 213 0
-276 -93 -526 792 0
-530 -675 -647 191 0
675 603 35 -331 0
432 -487 343 -345 0
-479 560 -191 771 0
446 -749 -409 -485 0
695 411 308 42 0
520 111 -432 -437 0
525 171 -308 612 0
-770 143 134 -680 0
-785 -145 355 -470 0
-177 309 -315 83 0
-158 -702 -569 -795 0
704 404 716 218 0
-782 99 -397 -132 0
290 691 -748 435 0
-601 -28 -228 624 0
-2 -626 -614 -770 0
-46 -217 -310 -446 0
-319 397 -692 -493 0
699 -530 109 477 0
-415 13 165 -327 0
670 -687 -412 433 0
619 462 515 382 0
115 184 -435 -545 0
725 605 265 -203 0
476 -289 -41 125 0
379 259 -436 -346 0
-301 -366 -428 -18 0
-750 -38 545 -757 0
149 -649 -506 442 0
-751 -537 -583 470 0
742 654 -104 392 0
-310 433 411 23 0
82 444 120 197 0
250 -711 51 -384 0
706 -797 -191 -284 0
-292 280 6 -417 0
-474 -614 651 -326 0
627 -295 -746 730 0
-555 -399 -488 -572 0
474 -761 -511 -216 0
-677 586 -81 647 0
543 -379 -312 -299 0
599 -171 640 361 0
291 -570 762 -503 0
-127 -100 -406 224 0
786 -797 -753 411 0
286 328 789 372 0
652 -326 -515 549 0
-294 -461 161 182 0
-672 177 700 -101 0
-652 30 634 230 0
750 -419 24 333 0
380 24 761 616 0
166 -469 378 741 0
331 -136 -301 -67 0
618 455 -248 182 0
340 -164 251 474 0
-417 -533 -482 395 0
124 733 -796 -622 0
744 62 -300 -408 0
-524 -645 -666 -451 0
-594 -772 -115 740 0
-495 216 -271 100 0
-771 251 -776 -267 0
-265 -582 282 -609 0
-380 578 -372 731 0
-487 731 451 -690 0
-300 394 264 -653 0
13 266 373 -739 0
175 353 660 -160 0
-497 -664 -174 538 0
-67 -351 231 317 0
-123 666 202 -366 0
-765 537 -234 -760 0
338 520 69 278 0
-58 -458 581 536 0
667 -251 234 -707 0
285 94 761 -195 0
-311 63 -213 -234 0
-53 -327 -650 -75 0
-556 604 221 613 0
115 738 454 797 0
1 -258 -773 417 0
-527 291 -661 307 0
-516 317 -641 -451 0
-522 482 508 -168 0
454 -351 654 704 0
-219 315 -514 -313 0
-625 -216 585 689 0
-162 625 -679 161 0
-427 -799 744 276 0
380 149 -314 -342 0
-577 403 -781 -428 0
-662 144 -468 786 0
-263 302 -383 25 0
-205 -221 -633 -516 0
-741 492 -739 608 0
-705 724 -499 -256 0
-655 351 -283 -551 0
768 76 333 794 0
-588 -205 576 91 0
-571 544 -299 707 0
729 -757 322 -370 0
-480 234 472 -371 0
766 -24 144 123 0
-542 -62 -525 383 0
335 552 504 290 0
-572 800 116 545 0
480 625 -666 -196 0
-463 -757 156 -667 0
800 -710 -758 443 0
-400 -20 9 231 0
787 -335 546 469 0
733 -591 -157 -194 0
617 41 -799 -131 0
-236 -674 -214 207 0
-223 791 -364 28 0
385 -27 -455 -762 0
204 -211 790 390 0
-593 -742 529 125 0
-367 768 325 -426 0
-262 -521 -115 468 0
103 -364 370 -318 0
719 87 -667 660 0
-748 -663 332 -47 0
160 -144 712 482 0
-677 -301 -381 633 0
-156 760 685 -186 0
-209 314 414 -641 0
-27 340 30 -482 0
387 -781 -613 740 0
95 -430 -68 116 0
-451 -138 618 -653 0
331 673 -553 -375 0
585 201 -129 225 0
-762 98 -735 -414 0
748 -676 309 337 0
-274 779 135 336 0
-36 -766 -395 -648 0
-35 244 -166 -407 0
644 -592 -416 -463 0
763 -287 672 -787 0
-350 -500 791 563 0
270 65 -375 -437 0
469 -114 -124 -564 0
-567 85 517 -187 0
-697 228 795 18 0
577 -544 -538 49 0
-544 -171 384 163 0
770 734 156 -554 0
411 304 -400 -535 0
308 1 -77 258 0
-609 -69 61 774 0
-249 401 -164 -662 0
-232 283 144 -412 0
455 -146 -689 -283 0
-106 791 -644 -613 0
-761 625 466 -158 0
-279 -42 391 262 0
-709 -499 777 299 0
-614 372 -248 -681 0
108 789 287 -742 0
-683 258 -366 86 0
-227 606 445 -682 0
622 580 -385 -532 0
-659 101 -590 98 0
619 -432 404 736 0
588 536 39 409 0
-27 222 -581 186 0
-30 747 -468 260 0
-284 457 -49 333 0
215 572 790 561 0
-177 512 92 342 0
-325 -314 104 740 0
775 -392 -208 -272 0
-371 -773 164 173 0
718 658 -574 304 0
204 96 -93 -729 0
-734 349 -546 363 0
-301 -629 584 -85 0
-159 684 281 -27 0
-232 -451 664 222 0
495 450 -425 570 0
595 410 643 590 0
-373 270 -442 380 0
79 710 -138 330 0
-132 -99 520 726 0
738 357 735 -719 0
-589 55 -472 634 0
23 574 -460 573 0
66 -699 -363 67 0
-29 731 -613 -503 0
678 -463 -318 552 0
521 417 -148 -785 0
-625 -55 730 773 0
543 -424 748 166 0
184 186 -31 -665 0
-414 -588 718 -702 0
-352 188 99 -319 0
-189 267 412 -206 0
-770 97 537 -264 0
383 98 -173 -2 0
29 582 -577 384 0
-187 549 -224 -354 0
-182 -452 724 -791 0
40 -551 124 320 0
172 103 510 198 0
675 562 -399 -459 0
145 -246 -503 193 0
492 -676 725 773 0
329 540 577 589 0
290 -329 139 -459 0
-387 -85 -503 -25 0
510 790 -295 701 0
315 602 766 585 0
-49 311 395 193 0
445 757 521 -537 0
220 102 -469 -191 0
-212 585 -656 628 0
298 5 247 676 0
-234 381 412 -46 0
433 697 -585 728 0
-755 280 -420 707 0
195 798 -500 260 0
-460 132 -679 707 0
-501 69 -188 550 0
-712 408 -292 550 0
405 -207 89 -569 0
-491 -112 -115 235 0
-70 248 -447 631 0
679 516 -786 -194 0
-157 -350 257 -180 0
-157 299 -518 66 0
26 -452 -72 252 0
-326 59 -115 702 0
-742 -330 -380 -40 0
577 60 397 -788 0
559 -76 21 -665 0
703 -631 -397 -461 0
-652 466 -491 -157 0
749 -179 -398 264 0
148 44 -471 -421 0
-642 -362 214 -416 0
-398 -475 373 -346 0
-223 730 196 583 0
-475 -562 -783 -419 0
556 668 464 -308 0
205 223 346 -565 0
-454 25 -711 212 0
-577 788 -160 -657 0
480 -252 757 134 0
544 753 -644 -37 0
55 -340 93 321 0
315 68 372 -639 0
-721 180 297 -311 0
-426 122 546 634 0
288 -707 -256 117 0
-139 391 485 389 0
-372 452 599 586 0
581 -353 -348 -88 0
-404 154 -114 685 0
-86 364 -618 -507 0
259 197 -526 -287 0
171 -54 665 -245 0
-280 -768 778 -673 0
-640 -11 753 -588 0
37 -712 689 277 0
-435 -417 -725 -351 0
289 -274 86 -461 0
522 -117 -24 -132 0
-158 -586 243 798 0
350 633 73 160 0
-339 681 -109 628 0
84 -191 94 -736 0
-52 735 -82 -397 0
-508 620 724 191 0
-454 190 -520 7 0
590 -194 -717 -127 0
234 -167 -405 651 0
224 437 257 354 0
-258 -289 -773 166 0
635 774 -441 82 0
691 91 327 603 0
68 -583 269 -745 0
-512 308 -782 501 0
-44 -708 362 420 0
-413 475 -476 464 0
-143 -325 -391 648 0
-177 -155 -608 -189 0
-203 23 510 -402 0
-195 -499 622 -742 0
-682 -62 -362 -109 0
-241 -532 -507 -222 0
-646 -319 -701 -634 0
-743 383 -706 -132 0
428 253 215 335 0
488 -288 -569 -349 0
330 648 587 -235 0
577 -482 20 321 0
84 542 503 -474 0
461 -399 -797 198 0
61 -486 253 -229 0
150 280 328 497 0
-662 193 612 -620 0
-517 290 -255 -386 0
148 304 -26 -30 0
152 458 641 -392 0
281 -467 -283 -203 0
18 -127 -54 335 0
564 -27 -644 445 0
36 660 290 -332 0
-735 -731 -136 509 0
-731 -241 -95 -773 0
-72 -505 411 559 0
-562 92 213 -460 0
-58 661 700 -572 0
44 225 -777 -239 0
-397 775 -650 -687 0
-732 -714 -425 -564 0
-504 8 358 719 0
-407 218 156 -550 0
384 524 -398 -164 0
-267 -403 123 667 0
-525 -789 416 210 0
211 -205 778 -584 0
-608 311 370 475 0
-259 -223 -524 -25 0
-512 -738 398 336 0
492 575 612 -293 0
-110 -1 -32 -635 0
456 -391 -747 582 0
-434 760 -382 -78 0
-123 310 146 270 0
124 652 763 -699 0
-116 89 743 -241 0
-24 720 -577 -492 0
-387 -31 -39 -510 0
46 673 65 -789 0
274 -25 688 279 0
666 46 577 446 0
-761 -49 294 373 0
383 -675 381 -744 0
-179 -595 -412 382 0
-770 507 -692 -556 0
-141 341 368 -661 0
-44 -352 519 641 0
-588 143 211 710 0
558 -43 533 107 0
758 -233 -701 727 0
383 -562 405 536 0
705 -770 109 232 0
193 -734 1 517 0
-314 -248 774 416 0
-196 -25 17 32 0
-69 -260 -464 122 0
-308 -352 398 -384 0
-630 -608 -43 -696 0
718 -485 393 771 0
-360 702 503 -28 0
-259 557 95 -85 0
389 -768 -346 248 0
-721 -463 -222 629 0
-800 -29 -519 456 0
-549 -670 742 -50 0
-463 -301 -167 -41 0
-79 -204 494 498 0
-181 -792 386 45 0
506 235 -731 -456 0
-136 -759 620 -577 0
726 -538 -711 -378 0
-571 -719 433 -69 0
-411 -520 250 141 0
457 -676 560 383 0
-597 -424 -119 574 0
401 -12 381 -62 0
-544 -10 -311 -141 0
-680 -487 490 491 0
73 -150 684 -131 0
75 -580 169 253 0
-269 417 62 -771 0
-688 744 -383 401 0
491 630 -522 417 0
-295 -510 -792 -77 0
-796 -150 -792 657 0
-350 -311 549 620 0
396 776 705 604 0
-588 -141 -481 346 0
-647 -65 -258 645 0
-321 332 -246 -580 0
693 422 -286 271 0
-143 789 705 303 0
-210 474 596 533 0
-211 613 -649 -346 0
-496 -735 -278 -582 0
-128 -386 564 403 0
466 -564 -598 284 0
-644 -502 -610 -111 0
371 -779 56 -43 0
-99 761 704 -434 0
-346 -640 -737 284 0
770 -274 566 -363 0
226 -176 -393 209 0
-629 277 -498 -128 0
-170 -178 -226 287 0
-615 396 -457 -219 0
154 -757 394 -630 0
-690 -504 448 -537 0
-453 -622 211 382 0
-173 -414 -213 -224 0
237 389 615 481 0
-67 -464 -731 -23 0
-742 -457 -435 92 0
-267 491 162 173 0
-201 -38 391 -374 0
-631 713 -567 -52 0
-146 -447 286 -191 0
95 636 54 587 0
181 296 -562 482 0
-201 -618 730 -79 0
128 798 -474 567 0
252 9 -334 176 0
-59 -404 -139 172 0
-377 -588 -286 -474 0
-656 -621 -773 -44 0
502 694 773 -405 0
663 533 -363 -621 0
-418 -171 -516 512 0
-306 -119 -619 -423 0
769 17 -221 446 0
777 -768 -144 665 0
-450 -259 499 -409 0
426 53 -252 -150 0
-477 -396 670 444 0
-42 -491 70 -361 0
104 -150 763 729 0
-381 25 -460 -414 0
-377 -53 -530 600 0
38 683 -799 562 0
-387 339 -677 -732 0
-202 -96 -632 -394 0
-137 200 429 -583 0
582 -262 -216 1 0
68 -225 -480 -170 0
351 632 -746 382 0
-760 -339 647 681 0
533 -699 286 -609 0
-279 337 -522 308 0
308 264 -110 152 0
476 -157 101 -715 0
-340 -307 84 -249 0
322 -59 -447 -416 0
-380 122 316 -242 0
-220 416 -441 -241 0
-335 -608 386 -85 0
439 505 -95 -715 0
137 299 -376 696 0
-42 170 -318 -339 0
1 -197 -175 -401 0
-539 -74 628 -292 0
-795 -717 -528 -99 0
-347 -681 167 -712 0
670 -723 411 -429 0
-335 -216 -247 473 0
-121 152 -111 -460 0
-328 -594 245 736 0
-688 566 747 602 0
-373 -161 401 197 0
399 -192 510 -475 0
-137 -335 764 725 0
717 -189 -8 169 0
152 -44 -144 -246 0
-185 -428 -40 790 0
346 3 -108 -495 0
697 675 755 762 0
628 627 -202 446 0
606 -561 -298 -552 0
604 -643 -65 486 0
-586 -237 323 606 0
-235 -685 -594 -261 0
-461 245 407 -3 0
560 427 17 514 0
-788 615 680 53 0
799 -119 241 -399 0
702 440 -82 -337 0
768 749 -265 174 0
-209 747 -168 371 0
562 655 71 -79 0
246 68 798 -789 0
463 346 -125 -513 0
-685 -630 -285 86 0
559 257 743 19 0
-65 167 150 -351 0
-776 -647 360 -31 0
-525 795 -413 218 0
715 69 763 233 0
-469 397 -330 -658 0
585 364 -18 681 0
323 475 88 -138 0
140 485 -507 567 0
-34 654 -325 252 0
57 308 681 -141 0
-422 -77 -544 -373 0
-292 -336 190 729 0
103 372 -117 -98 0
-591 -218 597 81 0
555 82 730 563 0
674 -305 103 -414 0
-674 -342 276 759 0
110 -489 -44 -481 0
-575 254 84 343 0
646 -18 482 224 0
-699 522 -245 418 0
-795 -193 505 -561 0
-541 300 353 -140 0
-256 632 -128 724 0
-416 -605 -196 765 0
123 -688 -255 -136 0
74 -701 -405 -137 0
-216 -735 -114 -713 0
-742 -664 127 378 0
-455 -680 -207 651 0
679 -249 -502 -501 0
-163 -63 -62 767 0
-145 -291 287 182 0
601 -466 357 -311 0
-489 -400 -277 165 0
661 498 394 -225 0
-275 -739 380 535 0
-318 765 -414 21 0
259 251 776 685 0
-188 643 -509 542 0
-568 -430 -582 -350 0
783 436 258 713 0
-617 -579 -578 -366 0
47 345 -366 -483 0
-576 17 -707 79 0
210 -479 423 548 0
452 -736 -139 -227 0
602 419 124 -288 0
243 627 122 96 0
780 247 46 488 0
7 -502 222 -422 0
590 285 1 438 0
169 28 757 -100 0
161 -240 -756 -47 0
-472 -63 -678 461 0
210 -376 643 -775 0
-65 -163 486 388 0
-431 -112 -87 -783 0
717 171 273 731 0
-606 600 338 464 0
460 -436 -177 626 0
-752 -791 21 201 0
596 -119 712 130 0
116 574 491 -405 0
531 -185 -552 238 0
557 -76 248 -552 0
-341 -563 140 -183 0
226 716 -652 92 0
-560 -83 -756 779 0
31 34 784 12 0
-741 32 86 -331 0
-705 195 493 -101 0
646 767 -620 27 0
-517 -662 297 -771 0
-685 591 553 -489 0
782 -296 -514 637 0
-479 27 46 -614 0
652 -350 -91 -371 0
126 242 423 -153 0
51 -375 -318 175 0
-641 -482 55 417 0
633 364 18 791 0
-190 -129 -67 -63 0
-542 128 -570 757 0
182 -561 -486 511 0
-193 -542 664 -66 0
410 634 695 303 0
-315 418 305 -163 0
-740 -743 542 -442 0
-42 -400 299 647 0
44 -192 413 -235 0
-197 -747 -24 -685 0
298 526 590 544 0
378 -248 570 -715 0
-138 477 -625 714 0
59 -299 245 -210 0
539 -264 602 323 0
105 93 97 729 0
-558 -50 622 -204 0
138 -415 -660 -331 0
79 -86 769 627 0
98 473 513 -417 0
190 -214 -28 31 0
612 -537 14 -251 0
747 291 611 123 0
697 -219 402 -377 0
619 73 -127 -539 0
-237 -407 -543 489 0
200 175 741 -162 0
-463 -282 344 346 0
749 302 -134 -533 0
-22 -797 -346 244 0
-48 -532 711 -99 0
44 -198 -57 533 0
782 -28 396 -158 0
180 -787 224 261 0
-188 447 -586 112 0
147 -637 216 -538 0
312 568 -6 -541 0
-684 -564 -755 -542 0
742 -128 55 105 0
49 -520 -378 579 0
17 -732 464 262 0
639 641 431 786 0
566 658 620 778 0
-468 92 535 303 0
583 -255 151 339 0
584 -634 200 180 0
229 -302 800 145 0
-57 418 -638 717 0
469 -783 -428 32 0
-742 234 533 -622 0
250 533 142 674 0
-4 -353 418 680 0
-350 31 563 -151 0
-677 -273 -96 -564 0
222 -16 576 494 0
785 195 542 -322 0
197 -796 274 -409 0
522 279 -642 42 0
-2 -7 684 -527 0
57 -120 782 397 0
-343 -27 50 -68 0
-645 -622 75 756 0
535 201 -597 -454 0
653 -287 277 -18 0
60 732 -460 -144 0
141 353 -20 569 0
486 394 -49 165 0
24 -407 -537 -691 0
-238 92 -136 322 0
411 -112 -479 558 0
169 -695 -105 81 0
-244 -526 686 -326 0
-125 195 -224 -459 0
-51 -744 -173 593 0
97 -442 -283 -292 0
-105 -408 -482 548 0
-684 526 175 192 0
604 -550 187 -105 0
587 560 349 -753 0
-777 -437 238 553 0
-327 419 30 -347 0
720 -603 558 -737 0
490 -717 63 413 0
-151 16 -374 783 0
-185 -230 645 358 0
-676 375 16 796 0
-415 584 154 -751 0
-585 -143 336 -582 0
-605 -548 792 -699 0
560 -17 -163 -130 0
620 709 748 236 0
709 -257 520 299 0
-625 -525 -567 645 0
520 -469 -770 -37 0
-558 412 459 -400 0
631 463 -282 390 0
-473 507 626 545 0
447 518 -510 736 0
201 506 768 -40 0
659 -191 699 641 0
-680 370 774 400 0
-32 690 128 -172 0
384 -275 258 -187 0
362 627 -302 191 0
590 -276 401 228 0
-106 349 415 -169 0
-780 346 -740 495 0
176 -414 604 227 0
-379 105 -229 -517 0
662 502 532 -270 0
329 775 -500 -792 0
644 639 -123 692 0
-493 614 496 169 0
-276 -39 -89 -373 0
-335 -336 208 -110 0
-430 488 -746 -538 0
17 636 -273 154 0
-90 -37 795 363 0
713 606 537 485 0
-7 279 370 133 0
412 167 141 -339 0
-333 792 598 -519 0
-172 -142 505 724 0
555 648 348 -751 0
730 -629 295 -183 0
-85 710 -439 -341 0
-160 315 -382 655 0
135 -659 -119 -334 0
35 535 -209 -649 0
311 -292 533 538 0
-148 512 707 228 0
300 -659 424 154 0
-721 172 378 295 0
178 -725 -557 -109 0
-147 -661 -8 -642 0
-93 -533 251 -426 0
-25 546 -170 -786 0
-186 359 -492 476 0
496 139 -389 159 0
-524 795 686 760 0
402 55 563 -187 0
-469 704 -221 204 0
-597 -191 30 334 0
220 759 422 176 0
-600 78 -656 -311 0
669 373 720 -251 0
-316 274 428 126 0
-225 -166 -403 297 0
592 -794 511 626 0
597 -450 -3 -192 0
683 -611 -480 -778 0
335 142 -594 -572 0
692 -771 101 138 0
562 -193 178 39 0
703 477 -532 -516 0
758 -740 -722 382 0
-63 -769 -788 42 0
-661 -84 -587 588 0
-216 -746 585 96 0
748 -601 -768 -357 0
753 -524 -198 -59 0
482 -85 216 -704 0
-50 -649 -155 750 0
718 -472 -420 478 0
-690 -92 119 -116 0
-633 -739 33 458 0
449 -255 -203 -638 0
-390 -346 214 550 0
-309 796 -534 -107 0
24 -572 -700 -405 0
681 -335 -138 154 0
199 718 -376 359 0
671 2 -220 733 0
-509 -18 -795 -100 0
-368 -563 335 -553 0
28 -266 77 761 0
-433 -127 -371 -629 0
614 635 -63 454 0
-23 -423 234 134 0
351 328 268 -163 0
-728 -293 -34 256 0
-509 -578 787 656 0
380 -454 -605 694 0
-253 258 -492 -109 0
-46 569 -61 -788 0
-755 -423 568 -236 0
166 434 529 44 0
-459 110 152 607 0
-475 -87 -201 -521 0
235 -341 82 49 0
-504 308 -205 411 0
187 -358 545 541 0
509 -31 210 124 0
-796 206 622 413 0
-448 -404 -153 -81 0
487 -20 -33 -59 0
339 642 -604 26 0
-683 479 -128 -259 0
787 566 70 733 0
588 4 -323 -256 0
-262 626 624 514 0
509 405 621 -542 0
605 -450 702 -124 0
-421 -392 -102 -153 0
273 -255 -239 179 0
-528 686 -606 610 0
-16 -69 729 271 0
27 220 479 -53 0
92 421 57 163 0
-266 98 559 86 0
-610 -517 -799 599 0
23 749 551 516 0
-73 -560 409 -267 0
365 535 -526 756 0
-449 -12 553 -177 0
328 -485 -683 96 0
307 610 413 94 0
512 691 -605 277 0
-155 475 744 771 0
-681 -651 52 -274 0
-91 -595 434 116 0
182 500 291 -691 0
387 363 110 798 0
657 408 187 300 0
290 625 386 -393 0
-273 -464 -524 -320 0
396 -146 164 -365 0
560 129 1 -515 0
-410 -546 -714 514 0
405 492 -155 -771 0
-65 92 308 76 0
743 255 367 678 0
-210 -732 -418 -111 0
-192 255 -45 261 0
718 -23 -170 -369 0
-128 -632 -100 -440 0
29 -581 427 412 0
-766 -67 791 529 0
646 43 560 -555 0
-565 -149 100 279 0
232 335 638 190 0
632 -680 552 -633 0
634 -563 -451 320 0
-93 -336 349 -603 0
629 -139 740 -614 0
370 -253 -714 -391 0
-433 700 746 64 0
-405 213 432 -322 0
594 -267 -336 -382 0
672 -667 587 -309 0
49 -301 386 385 0
-629 -446 -442 -510 0
-319 -323 434 -373 0
462 -316 787 327 0
-436 -134 -249 -379 0
-649 -189 -789 429 0
619 -623 356 -235 0
-192 122 180 -156 0
-490 -711 -673 -486 0
-29 107 -81 182 0
516 258 -547 530 0
550 16 -111 -486 0
-573 131 201 -82 0
14 -280 -457 -139 0
-436 -78 -151 -748 0
-754 -778 491 -351 0
771 546 50 -473 0
-272 527 180 -318 0
333 -260 -371 771 0
-261 -313 669 377 0
-79 115 -144 199 0
630 784 755 749 0
-87 -462 449 793 0
-695 -761 171 502 0
-702 -174 75 487 0
69 -622 397 -253 0
396 624 -236 333 0
-235 339 236 313 0
759 -107 -528 -71 0
-69 -436 354 -177 0
-269 438 -55 -545 0
618 635 -223 462 0
-774 744 -686 -329 0
515 525 677 262 0
436 601 541 527 0
314 323 -493 593 0
-698 141 260 386 0
-554 -766 391 728 0
-665 -232 607 -461 0
-116 -662 676 563 0
581 216 177 530 0
-218 -172 -150 -125 0
3 -17 -65 -709 0
31 521 647 -612 0
-396 -125 -12 561 0
296 -64 -742 -241 0
-88 -604 -523 774 0
-564 -657 142 -200 0
-693 101 -36 4 0
414 -187 -4 379 0
-389 449 -77 340 0
-685 -400 433 276 0
307 89 726 93 0
-2 458 555 332 0
791 -634 481 43 0
-441 -430 562 208 0
637 415 164 398 0
572 -569 533 651 0
-497 630 -75 -373 0
-80 584 -466 387 0
136 -442 719 783 0
-573 -192 390 16 0
586 -378 143 75 0
-121 -472 499 -468 0
-395 617 190 77 0
288 95 -624 -730 0
145 -618 -489 343 0
-271 -739 749 -376 0
-301 382 -498 47 0
145 130 -376 509 0
65 648 -409 225 0
-471 176 217 140 0
574 -626 -336 -739 0
668 530 -188 -165 0
430 75 -399 -556 0
61 360 -576 657 0
2 -626 183 -475 0
191 438 -83 766 0
-452 -55 -584 -140 0
322 -697 16 5 0
89 -517 -588 320 0
-145 582 -535 480 0
-353 -135 -610 264 0
91 640 -739 -528 0
552 -85 -219 -790 0
361 -794 -575 -680 0
-304 219 746 -369 0
-156 -431 543 -62 0
440 459 199 603 0
-555 -516 200 -561 0
646 -306 -416 142 0
-284 722 -52 -403 0
-407 164 211 579 0
-342 785 -333 -110 0
615 105 -240 103 0
-398 -98 -616 704 0
699 -399 -56 704 0
380 -240 -323 -275 0
-85 -683 139 187 0
61 11 -162 -428 0
346 -220 737 188 0
603 -266 -451 -649 0
505 103 -784 454 0
363 726 761 605 0
-68 50 -10 -403 0
739 -13 -209 -707 0
33 220 439 -47 0
556 308 642 -629 0
-631 632 -179 -559 0
-581 -349 -151 47 0
-584 592 14 660 0
-561 -61 -76 560 0
248 -491 513 -274 0
199 584 -296 -315 0
-3 403 -503 -470 0
224 -165 -649 -357 0
-262 -134 -401 189 0
643 -192 678 -587 0
98 72 16 755 0
-694 48 365 251 0
-523 260 -249 -15 0
-226 140 632 7 0
468 343 -773 577 0
191 90 -176 -608 0
237 -247 -430 688 0
-469 -379 363 534 0
712 -611 130 2 0
-232 -731 770 -564 0
-663 -623 743 677 0
-535 -587 -501 -741 0
115 -516 448 217 0
321 -583 768 -475 0
-570 530 -46 -726 0
548 -784 717 619 0
159 521 -596 492 0
319 -55 674 -99 0
-2 -56 -182 565 0
-235 -139 -679 160 0
671 217 749 -135 0
-369 -592 -617 728 0
-14 -131 37 650 0
-225 -135 134 735 0
-106 250 382 736 0
-428 -344 49 417 0
353 -733 -610 -237 0
-599 99 626 551 0
613 92 426 -700 0
388 623 -42 163 0
30 -270 254 -760 0
155 -582 -84 -208 0
416 571 -378 428 0
-42 -393 240 718 0
-371 62 -311 596 0
452 442 -401 -202 0
427 -353 -9 -310 0
173 -395 -138 -445 0
222 421 682 141 0
-329 273 690 155 0
41 547 753 -505 0
-638 -418 152 -655 0
-616 -585 -700 -390 0
138 -738 -289 -472 0
-545 -242 231 252 0
247 80 81 -724 0
383 737 -274 379 0
692 -276 512 339 0
-275 -740 791 -651 0
-578 484 278 -403 0
-66 -442 -214 -288 0
715 9 587 -341 0
-90 -350 190 -779 0
-391 407 -310 -458 0
283 140 -246 -377 0
126 293 54 -684 0
162 426 -120 309 0
464 -581 -423 226 0
19 -31 547 662 0
-172 146 -124 82 0
-288 326 -161 215 0
-444 518 472 -266 0
116 510 199 659 0
709 542 -421 -350 0
-464 -136 -592 -441 0
115 286 64 -662 0
-157 450 -550 65 0
-47 38 26 -156 0
191 -328 -475 679 0
233 -588 -709 127 0
711 -89 -507 169 0
360 -727 158 531 0
191 590 -744 647 0
-631 -361 -676 700 0
790 454 233 -717 0
295 373 486 708 0
-231 133 233 -434 0
-94 -51 565 471 0
124 -783 -518 -163 0
-128 160 406 103 0
572 695 574 -648 0
-646 446 725 -781 0
-333 -454 772 -269 0
708 157 146 166 0
300 260 158 -355 0
-681 702 -647 -189 0
633 346 -217 381 0
740 -491 -251 -69 0
-504 283 -108 242 0
313 -791 125 -669 0
794 395 -179 -411 0
-585 -738 485 673 0
47 371 327 258 0
-378 -89 439 738 0
338 439 279 -18 0
217 -606 -329 -462 0
-1 141 19 -260 0
668 -509 -99 140 0
-586 250 -770 734 0
663 465 -416 -38 0
503 496 -237 -82 0
-399 -692 783 29 0
-637 -487 665 -558 0
647 -702 586 716 0
-392 337 317 193 0
-343 -187 239 -128 0
25 -794 -358 498 0
-291 -492 8 -729 0
314 -317 -558 -682 0
461 -317 -92 430 0
-35 -264 -339 -34 0
-204 -39 -603 -757 0
476 452 -81 113 0
-390 -229 -329 -211 0
377 -359 113 -166 0
-241 81 322 629 0
-782 -344 627 -403 0
339 -772 -269 -300 0
313 627 -125 406 0
-723 -265 283 593 0
271 18 539 -778 0
-49 608 -337 513 0
590 686 546 -658 0
256 162 -107 -9 0
-178 -118 491 780 0
198 -294 -646 727 0
-797 -129 39 251 0
391 66 152 -741 0
755 -365 110 -140 0
403 -365 542 724 0
483 -3 569 -441 0
71 -268 723 -370 0
227 87 -75 -229 0
188 196 -418 -162 0
-318 -469 -300 -188 0
-680 462 732 594 0
554 29 34 566 0
145 583 -288 391 0
-92 -663 -679 -499 0
-39 -310 213 327 0
49 -168 -166 -573 0
770 -345 -748 772 0
-157 -639 -240 10 0
-221 -210 -11 -236 0
752 709 -126 687 0
-449 438 146 -795 0
767 -59 -178 285 0
237 753 -596 -570 0
-278 -734 -135 48 0
-596 760 790 17 0
-136 300 54 383 0
266 677 560 -474 0
652 -708 508 329 0
-188 271 52 396 0
-158 694 481 -645 0
325 -614 -42 599 0
730 261 -520 743 0
463 -588 -788 79 0
-123 544 469 526 0
761 629 -52 686 0
497 299 711 -37 0
602 -635 -633 258 0
-783 -113 -506 -105 0
-261 -256 -226 -571 0
-148 -116 385 181 0
662 -392 197 -200 0
297 302 -310 454 0
512 -521 -614 595 0
-11 384 -629 700 0
-321 195 699 -459 0
650 674 -215 -164 0
-190 -464 510 486 0
-18 -429 83 -409 0
670 -378 -587 -743 0
-788 -421 224 44 0
-412 239 -447 -251 0
638 -741 -304 -681 0
-680 266 -639 -527 0
742 110 -229 671 0
230 -722 161 -66 0
-178 79 382 768 0
-552 -158 -446 557 0
107 -782 597 -113 0
-313 769 -137 690 0
-510 453 654 538 0
398 -654 -412 289 0
-611 446 -742 -133 0
-447 -149 184 -77 0
-168 627 -260 -545 0
524 -582 792 -717 0
779 417 603 625 0
-668 165 -527 -716 0
443 433 420 -22 0
357 -202 -766 166 0
-4 -330 -647 48 0
241 564 -727 -2 0
631 176 -676 -798 0
715 443 168 -469 0
570 212 514 -625 0
496 418 765 86 0
-769 -787 -413 -182 0
-796 112 1 -77 0
-232 735 624 157 0
358 192 473 -755 0
-783 754 -718 -21 0
45 433 -774 645 0
552 -536 -103 -670 0
-622 456 -420 120 0
-430 594 -547 -659 0
753 -692 -18 -734 0
-409 547 394 -783 0
332 459 210 -316 0
334 229 -617 -280 0
-306 -140 -594 623 0
-422 -434 605 -312 0
-576 4 -567 610 0
-703 -633 585 292 0
-517 -310 -116 421 0
352 212 -409 -751 0
-796 -599 547 -29 0
-656 -528 404 11 0
-168 -409 143 470 0
19 -558 184 278 0
1 570 553 -587 0
-313 683 -554 565 0
-762 109 -567 356 0
-458 -380 -14 -49 0
696 413 -105 -607 0
367 397 -300 -100 0
-555 -681 302 443 0
-20 -670 122 -544 0
-116 647 -769 -209 0
303 311 -259 -135 0
352 -433 -573 -411 0
-146 -797 130 120 0
-141 323 -436 787 0
340 -242 221 -651 0
315 492 -399 311 0
-616 448 -335 -175 0
-7 501 -84 -141 0
-611 -58 -4 -759 0
-70 735 -798 484 0
-507 161 436 791 0
-570 -329 -730 692 0
175 -698 -355 144 0
-336 -501 -378 -630 0
653 -49 -372 -316 0
-236 784 -375 654 0
750 762 -303 115 0
-720 585 471 -205 0
-237 -501 523 -548 0
71 705 206 -246 0
39 -526 486 -519 0
-179 -492 557 -487 0
-701 65 -321 186 0
-218 336 747 -232 0
579 -110 -365 -436 0
90 753 491 -454 0
67 -318 230 -215 0
386 -645 441 269 0
-30 707 -38 -115 0
18 -545 240 701 0
420 -680 -535 -298 0
527 796 530 305 0
-469 597 -380 449 0
503 337 -651 728 0
-114 -607 53 184 0
624 677 -679 647 0
-655 624 463 84 0
269 -337 -102 273 0
-536 -401 -108 85 0
-350 -771 -445 550 0
504 -552 -82 282 0
756 633 673 -738 0
-591 49 380 324 0
227 -383 92 644 0
-773 740 -476 -767 0
-405 21 765 -763 0
255 -546 129 -588 0
-125 -250 741 437 0
-104 -515 735 -126 0
-732 -473 212 411 0
-509 211 -389 776 0
522 -738 -614 411 0
722 8 642 342 0
441 -93 -376 649 0
-396 -385 -246 599 0
-104 389 -298 -253 0
-521 -246 -483 498 0
-785 666 -388 420 0
387 262 -263 71 0
639 -714 473 332 0
307 420 -272 44 0
560 -2 -139 -503 0
-433 -138 -522 -105 0
-774 -593 -236 -607 0
-46 429 508 412 0
-642 709 4 -584 0
-629 -522 466 -784 0
724 243 -786 -337 0
465 -273 202 22 0
123 109 776 393 0
36 208 313 214 0
211 -562 482 454 0
-220 -415 -291 -780 0
9 620 -13 638 0
653 -430 -24 191 0
41 269 -70 -671 0
-36 -742 -669 -365 0
-21 58 725 -707 0
221 -164 278 -381 0
-637 495 732 -631 0
284 558 -477 29 0
-262 -589 417 210 0
-148 190 297 -15 0
430 -103 -111 -547 0
-442 -102 -705 -391 0
712 -669 -174 58 0
799 -243 -401 -425 0
-557 -598 -32 -11 0
507 250 -140 342 0
-222 631 473 -92 0
96 112 210 -554 0
-78 -671 400 -508 0
-727 -793 -287 762 0
-561 -71 -486 7 0
-149 231 778 -309 0
-148 -96 -664 407 0
774 85 -146 -751 0
-760 -457 486 -185 0
-641 -362 -324 97 0
-618 308 -738 571 0
-709 -368 -599 -554 0
684 114 -328 -550 0
415 776 720 -293 0
-570 -439 -527 -691 0
-10 -513 539 -276 0
-674 -571 -91 579 0
-134 -88 448 308 0
787 207 403 623 0
236 -286 554 -276 0
162 -121 -230 -588 0
732 -10 173 68 0
761 -152 -15 -368 0
63 -22 -19 562 0
-413 -465 246 608 0
-797 -582 -93 125 0
95 -394 -582 772 0
207 468 760 -596 0
-734 633 -46 398 0
85 -561 -436 -492 0
612 -604 -528 -284 0
251 -457 -85 99 0
-662 -379 711 266 0
-154 19 -194 -652 0
-332 -781 -245 285 0
622 612 257 -291 0
-152 -734 55 98 0
143 724 -789 -553 0
228 -526 -458 611 0
-401 145 -35 544 0
140 -479 -233 368 0
-228 -353 466 18 0
-574 143 565 719 0
-644 -181 647 336 0
118 -33 -63 -476 0
-56 -88 -131 -576 0
764 180 206 -131 0
92 129 31 -671 0
-754 440 446 770 0
773 265 -320 -391 0
148 -451 430 -225 0
-637 -91 341 243 0
210 -750 -317 504 0
-86 503 420 548 0
-130 470 685 188 0
721 397 360 -716 0
79 -637 453 -419 0
639 301 485 479 0
371 -16 38 423 0
-495 309 150 -129 0
315 744 430 -757 0
345 653 -444 -259 0
177 18 410 -676 0
127 104 687 -728 0
151 -475 -256 -3 0
601 295 513 -515 0
-430 550 -24 415 0
-104 45 -187 94 0
-286 -85 744 -191 0
-626 762 -541 -435 0
-748 -658 -518 395 0
207 108 609 458 0
83 -92 283 -34 0
120 247 110 -769 0
668 -569 425 -47 0
160 779 364 701 0
-265 101 -596 664 0
-374 10 -644 -124 0
-170 -724 123 24 0
-455 536 763 -4 0
-233 -480 115 -426 0
631 482 159 133 0
394 258 -493 503 0
42 459 -430 574 0
561 -16 -690 741 0
513 33 -16 174 0
-139 219 -405 -191 0
-394 -617 -685 -782 0
484 -21 -399 454 0
252 592 -374 -714 0
754 -119 -417 306 0
223 203 373 48 0
161 -289 217 -720 0
141 -296 -555 300 0
757 -436 -616 -77 0
378 73 387 488 0
716 -298 414 731 0
-338 -239 -318 -564 0
-780 283 -511 431 0
-600 435 -126 328 0
-114 -141 -560 789 0
138 -240 -607 -382 0
159 386 -655 -47 0
393 -20 158 303 0
-791 -287 -433 -792 0
28 -472 -209 63 0
773 668 -493 545 0
-222 -101 -499 -326 0
453 -304 -75 -309 0
-52 166 -577 177 0
152 -462 -191 -569 0
257 -140 -11 -457 0
-70 724 212 -347 0
-709 142 -367 619 0
487 622 54 417 0
-536 -403 -606 -696 0
241 266 7 356 0
-149 -486 205 592 0
-461 -440 264 -796 0
462 60 -755 -486 0
261 163 -447 79 0
-266 -151 186 -489 0
-212 185 -62 -724 0
780 -77 476 380 0
110 -434 169 -59 0
296 -275 -566 414 0
436 593 -9 213 0
-765 424 583 -563 0
-408 276 508 -80 0
-778 -20 222 -83 0
-351 -702 -12 34 0
188 260 287 -386 0
577 286 -455 -444 0
577 -34 -760 408 0
-631 747 -628 564 0
131 -474 718 -162 0
-587 -121 397 228 0
440 -61 129 441 0
-465 171 567 -660 0
-767 642 601 383 0
-309 -3 -429 767 0
174 46 559 11 0
-176 -610 -48 170 0
-307 244 635 34 0
-178 -161 357 -198 0
69 42 -158 384 0
117 -634 747 232 0
35 232 415 595 0
214 -639 -199 774 0
-404 168 -607 437 0
-759 552 661 237 0
-93 -166 594 -59 0
627 -616 -630 -138 0
-203 -78 -493 471 0
394 187 610 794 0
-351 -638 -101 -601 0
-494 382 238 -740 0
327 -155 -684 521 0
-146 -719 27 -636 0
585 608 -163 676 0
277 -63 196 171 0
-364 11 -326 97 0
108 307 -244 683 0
-473 654 -144 268 0
135 158 -96 514 0
330 718 553 -113 0
-556 495 505 -43 0
214 241 -776 -175 0
-633 59 -170 -349 0
59 533 342 652 0
-757 -555 176 -794 0
-177 -19 758 521 0
372 -313 -222 799 0
-402 173 -569 -163 0
188 -362 747 680 0
-458 177 566 422 0
93 -174 167 -252 0
12 -14 621 -720 0
-138 420 -409 1 0
-595 -370 -441 -199 0
-735 238 630 -77 0
-782 -206 552 -635 0
607 -228 -392 6 0
-473 -498 -675 39 0
429 -57 -486 447 0
-363 -11 -16 -587 0
456 436 -675 151 0
203 421 -118 13 0
446 -307 -141 205 0
-120 -767 202 471 0
-489 431 771 33 0
185 639 -47 285 0
-103 -524 564 452 0
579 -194 -177 307 0
-456 316 -274 -791 0
439 -800 -344 202 0
12 -170 -368 301 0
-141 429 -573 582 0
752 724 -273 -65 0
-513 346 -641 -321 0
286 -241 329 799 0
-226 -489 -547 80 0
-651 -421 755 97 0
-283 -218 469 -53 0
668 360 -426 263 0
774 240 414 -567 0
-305 711 90 -532 0
62 -153 464 -487 0
530 316 343 -42 0
298 -242 -373 -422 0
723 254 -455 -274 0
-495 661 -451 682 0
124 -562 139 -188 0
-589 -658 288 795 0
520 -442 337 224 0
397 -483 770 -211 0
528 711 -633 516 0
653 331 -23 -687 0
467 -61 269 -664 0
-412 -700 -741 -454 0
72 412 782 -167 0
197 595 596 182 0
-581 -550 164 503 0
-788 -209 792 -239 0
-434 316 -626 -269 0
713 -606 549 704 0
244 335 -310 -704 0
-794 580 626 -429 0
-349 -552 450 -195 0
279 -238 575 525 0
715 -151 711 -695 0
483 515 -6 -396 0
117 352 661 -541 0
389 667 -259 791 0
-524 -96 -337 -2 0
-614 -160 -423 -646 0
645 553 33 -531 0
412 -154 -542 170 0
304 -307 540 -335 0
529 520 -676 594 0
-647 -283 91 78 0
-737 -615 -395 -113 0
-34 -544 -137 18 0
180 -432 -200 -689 0
-610 -391 646 667 0
-497 7 84 183 0
147 -306 167 674 0
-160 -229 470 373 0
415 722 -61 -256 0
-773 301 249 -385 0
361 -364 228 716 0
451 377 798 286 0
-279 523 560 151 0
255 -531 -379 -284 0
-131 237 439 40 0
-542 -418 -291 600 0
-683 -179 139 -767 0
-170 -421 -578 635 0
-583 -598 418 182 0
616 674 159 603 0
221 329 -770 567 0
-728 508 -462 -626 0
-253 261 538 177 0
253 98 336 205 0
-159 130 -413 -11 0
-675 716 478 -409 0
-313 -759 -668 678 0
-73 223 308 -122 0
-651 557 -482 -136 0
688 393 305 -164 0
12 -338 -636 -727 0
238 -32 584 -497 0
-268 573 636 411 0
-559 -35 -665 -379 0
-374 -252 -644 3 0
586 342 492 157 0
298 -7 -318 254 0
-326 231 -75 -673 0
-14 54 -509 502 0
-359 64 232 430 0
151 712 342 637 0
-529 -496 199 216 0
318 -282 -460 -294 0
455 768 -548 -426 0
-6 709 482 424 0
645 35 -705 571 0
-674 -171 -552 608 0
38 620 -76 572 0
-81 747 -755 98 0
-635 402 686 -375 0
-504 485 3 52 0
-735 -319 -327 320 0
-619 729 -560 -154 0
392 404 -788 165 0
558 568 409 -701 0
-456 -547 554 -13 0
392 -290 -709 -448 0
-739 -428 136 -205 0
22 516 -520 55 0
620 -572 495 -44 0
717 630 95 554 0
228 81 95 -205 0
99 344 -551 283 0
-247 191 -674 123 0
-701 -689 163 151 0
488 -489 280 373 0
-59 545 -696 -792 0
-66 297 -400 -764 0
279 -432 -498 -397 0
720 -778 591 -385 0
-394 -76 -758 548 0
460 -7 222 -398 0
-243 -43 -406 245 0
-657 90 663 649 0
12 222 -601 45 0
-655 30 -147 374 0
786 472 -776 380 0
-589 665 192 -402 0
475 -358 -505 303 0
141 45 -327 -293 0
-338 -231 527 93 0
-610 -399 357 645 0
-781 -339 408 -416 0
-127 506 -632 -507 0
-419 -106 -431 -143 0
656 -158 -776 -432 0
-65 -375 -517 -374 0
452 -236 -696 -744 0
-434 -56 -356 -540 0
-77 -215 -252 605 0
-271 750 -764 375 0
479 -598 56 -327 0
659 -538 653 -590 0
-736 -415 -595 -220 0
-331 731 -622 507 0
-8 -384 -704 480 0
490 -486 -749 91 0
578 -191 -168 -27 0
148 -707 724 -619 0
-415 297 -266 -41 0
168 405 -472 -386 0
-485 243 637 727 0
-48 140 -245 703 0
-67 434 632 -194 0
-218 305 -507 676 0
689 -495 -340 -329 0
-399 59 454 -332 0
227 -128 -31 -4 0
690 159 189 -793 0
-132 -505 -461 479 0
-519 -717 -35 408 0
-454 -4 213 -572 0
321 -174 -639 516 0
-39 -656 485 -726 0
692 -664 -445 -485 0
142 -381 -583 3 0
251 724 -415 196 0
-414 269 -422 747 0
662 -601 214 107 0
696 497 767 589 0
80 -264 614 724 0
322 15 -289 -612 0
-447 -304 222 131 0
104 134 161 736 0
77 677 -107 -338 0
5 -717 75 187 0
168 141 -198 -606 0
-177 -653 166 -350 0
-526 793 -514 539 0
-560 665 495 -60 0
-535 51 394 -715 0
-658 379 411 314 0
278 401 26 772 0
581 794 397 198 0
456 -158 207 405 0
-145 -428 -86 -394 0
327 751 -461 701 0
536 -409 -331 -336 0
-177 -261 -482 -442 0
-534 -425 -544 -136 0
-262 -333 -110 -158 0
525 -603 627 484 0
207 -542 417 548 0
-482 43 -748 -66 0
638 306 -275 -158 0
711 341 -749 50 0
-796 285 -765 71 0
654 68 622 488 0
499 139 -280 -345 0
-625 277 -540 -14 0
-789 387 770 -708 0
330 511 656 655 0
-599 644 -780 -562 0
632 257 -277 -151 0
93 -363 544 615 0
-18 -480 196 -320 0
-471 -483 -293 546 0
673 317 69 526 0
739 163 -207 4 0
657 533 -406 -714 0
-251 663 -785 226 0
740 -562 -386 734 0
300 -529 215 -102 0
187 605 -219 -673 0
543 -783 93 480 0
-371 349 577 320 0
157 -242 -137 -472 0
515 -594 28 156 0
-37 -726 782 439 0
654 -459 -57 -688 0
331 -721 -266 -73 0
608 538 80 558 0
474 -527 68 362 0
310 379 -523 624 0
216 -518 270 564 0
-18 -702 -491 -409 0
-118 647 684 618 0
560 103 159 581 0
-781 101 524 -786 0
412 398 733 -779 0
601 136 -225 493 0
237 230 -282 -724 0
-466 -48 -249 731 0
424 -532 -748 -231 0
-499 -453 242 758 0
-224 -103 331 -338 0
693 34 367 131 0
757 -228 -529 -281 0
522 -551 -215 -108 0
53 668 719 105 0
51 -204 411 -549 0
796 547 -617 77 0
633 -458 551 -55 0
-797 -643 -274 -366 0
301 -26 780 238 0
23 68 -443 224 0
-519 678 -214 122 0
-165 -616 -721 -686 0
573 -793 761 -214 0
378 723 -678 -312 0
-93 -385 755 382 0
598 444 -399 25 0
-483 -727 261 399 0
558 -291 666 85 0
-625 -118 435 66 0
-79 526 681 97 0
102 234 -782 308 0
-723 -605 -262 -576 0
132 -606 737 -129 0
-207 790 -30 156 0
31 589 -744 662 0
-194 426 -387 -464 0
446 80 2 -143 0
33 138 -132 137 0
-41 -75 -214 -743 0
-367 633 759 -17 0
-651 -312 283 -414 0
-796 -359 -65 469 0
144 -386 54 -113 0
-69 582 -599 769 0
-343 -365 597 -777 0
-270 -95 306 623 0
561 -332 -3 184 0
214 -278 799 -296 0
185 -547 549 235 0
-68 259 -370 283 0
-300 -595 203 153 0
539 -530 -478 604 0
-297 -15 598 -330 0
527 -199 -54 -716 0
-714 -549 -492 -250 0
-67 -257 235 444 0
16 -498 562 -80 0
-538 328 434 -309 0
562 668 3 -147 0
-739 74 -382 -270 0
-190 -200 56 515 0
713 -20 -692 -335 0
-297 -158 -28 -414 0
-757 603 -580 146 0
-211 758 -532 -145 0
-328 -238 -602 -134 0
29 -98 -680 757 0
-263 -548 -315 -215 0
186 -530 388 -120 0
-422 -696 291 -342 0
306 -625 454 -439 0
-198 275 179 -764 0
-769 465 652 -687 0
-587 564 653 -641 0
-793 -95 343 -705 0
-341 577 68 -274 0
253 -655 -524 -63 0
379 225 -256 415 0
-797 -278 -784 -404 0
595 -716 706 717 0
-565 -348 766 256 0
-398 -506 -607 155 0
661 715 -429 -202 0
-676 294 -421 562 0
423 -104 -403 749 0
631 624 -771 -778 0
-230 690 513 -86 0
-473 91 -30 -251 0
483 -708 -171 794 0
-434 494 -568 -729 0
213 -121 -135 126 0
-792 -453 -407 189 0
-649 169 -398 720 0
613 112 472 143 0
308 -12 221 -405 0
-684 113 186 658 0
91 -636 420 463 0
-224 -337 -226 -615 0
-792 585 29 -117 0
-600 -35 -780 -773 0
488 -682 430 494 0
103 289 -47 -577 0
-73 -445 -506 615 0
107 411 11 -290 0
26 -49 320 -672 0
576 428 122 -414 0
-636 -617 41 -253 0
514 761 338 -310 0
203 77 436 -63 0
-606 -103 211 -557 0
-719 -89 508 119 0
317 17 -139 311 0
-534 -569 671 -91 0
648 307 -325 140 0
-219 -447 488 -523 0
-74 245 -568 82 0
674 -389 126 -592 0
-291 50 -78 -728 0
-612 -680 444 678 0
346 -172 -331 -180 0
-143 649 373 -290 0
-556 612 722 -629 0
620 290 519 -584 0
109 -606 -644 718 0
412 -214 -375 373 0
-460 -654 -742 89 0
-415 -376 -27 -266 0
302 -670 282 114 0
432 185 267 -42 0
-6 4 654 422 0
778 -103 -498 -139 0
738 114 -125 -360 0
-152 -186 -180 -570 0
160 539 -198 -367 0
95 -40 744 -770 0
-105 -722 119 253 0
199 -327 799 454 0
8 448 -297 -121 0
42 -614 778 -476 0
75 25 308 -105 0
309 -80 628 341 0
-98 -672 -269 295 0
-644 132 564 38 0
229 -24 395 228 0
26 690 233 -476 0
-677 636 743 736 0
-413 -611 -590 -15 0
-505 382 607 -586 0
590 -755 1 430 0
368 -157 -533 623 0
-398 -340 -431 -471 0
-45 -85 409 -326 0
574 -71 -307 602 0
525 288 -200 491 0
-408 303 276 -309 0
-10 545 289 -692 0
-309 -525 5 -786 0
738 -339 -351 253 0
323 -470 289 599 0
-388 -16 -167 285 0
227 673 -148 -636 0
228 85 330 -656 0
-287 -21 144 620 0
-93 454 162 102 0
-28 310 -90 -418 0
701 -247 -605 181 0
6 406 227 -130 0
-237 601 161 -513 0
-190 155 -47 -429 0
-250 217 -383 -634 0
60 662 -23 -189 0
189 -349 -386 733 0
-378 -363 615 317 0
147 -233 1 -293 0
761 -240 85 395 0
-78 292 340 -386 0
758 -122 630 303 0
107 -83 -687 -463 0
-60 353 -182 -675 0
590 164 -568 -89 0
-679 -76 -739 -640 0
490 -642 561 -697 0
-438 -210 -344 252 0
-600 160 74 142 0
-377 -425 -226 -510 0
-23 42 30 -765 0
-771 -551 579 -714 0
266 448 -353 614 0
130 -491 774 -549 0
700 509 -423 -351 0
-537 -143 43 97 0
-362 -168 -718 439 0
-226 378 -66 -148 0
-255 501 -375 -689 0
421 267 -542 -452 0
592 -295 -726 -377 0
6 -424 -593 133 0
113 147 689 56 0
729 505 184 612 0
599 -797 -221 -264 0
-113 -309 -448 -673 0
506 473 564 -707 0
-354 505 -741 581 0
-299 -715 672 54 0
96 300 464 -569 0
249 -198 -456 661 0
721 -277 -325 66 0
13 405 202 417 0
-533 437 206 5 0
28 51 -738 -693 0
-260 792 -557 -209 0
-591 391 24 -522 0
742 -758 654 88 0
260 622 -293 446 0
430 -287 -582 -733 0
379 -782 96 578 0
-1 -80 -111 340 0
-733 708 -726 658 0
522 -591 -655 -776 0
-289 -63 279 -248 0
704 219 -339 196 0
-489 -318 -470 328 0
-106 -413 -529 326 0
563 269 -37 -94 0
673 106 415 -621 0
-106 447 -96 110 0
433 116 -88 -583 0
754 -730 -534 207 0
737 329 -29 -341 0
-660 -553 69 603 0
253 374 246 -254 0
-164 -398 410 -676 0
-573 45 69 -698 0
497 620 -214 5 0
-350 210 -162 474 0
-663 -228 262 -325 0
328 -129 531 -380 0
558 479 -196 8 0
9 655 468 -784 0
496 487 -481 467 0
-514 300 144 327 0
-204 -2 -799 -618 0
-145 -734 -286 199 0
-54 358 757 675 0
97 776 634 729 0
487 -111 386 -374 0
467 417 -304 42 0
-200 295 -798 -273 0
289 -142 691 389 0
712 187 -131 91 0
14 -470 -22 -371 0
117 -343 505 -656 0
-719 99 -45 -71 0
-517 34 -138 -411 0
480 345 -613 -467 0
-520 513 731 -212 0
-585 -413 -484 584 0
518 424 -649 -397 0
-213 94 -507 -710 0
531 -146 318 403 0
-738 -511 -686 132 0
692 674 -145 22 0
387 18 -328 -89 0
147 -508 -118 411 0
743 203 241 -328 0
-730 -781 206 14 0
-539 -610 -603 -241 0
318 545 -46 178 0
286 67 -344 557 0
637 758 236 -51 0
-91 249 789 428 0
85 144 -141 691 0
-780 586 -311 -799 0
-4 356 736 -226 0
358 698 -562 218 0
510 -208 -620 459 0
128 765 -316 -144 0
365 -664 -30 -776 0
-101 522 508 491 0
222 419 242 -443 0
747 -671 407 -795 0
-163 189 436 -443 0
717 -705 -200 459 0
174 192 564 657 0
-475 -299 595 -598 0
-350 -638 489 492 0
390 304 -26 563 0
26 325 -31 75 0
-112 800 397 338 0
-143 -605 361 -406 0
-117 316 -539 -439 0
-736 618 -189 269 0
-575 -504 -358 -655 0
-145 604 -201 19 0
66 -660 -520 401 0
24 -412 -678 -659 0
194 418 -620 -216 0
-43 14 511 655 0
-395 667 728 -434 0
481 753 -651 296 0
-707 -95 658 781 0
-418 695 796 -508 0
-214 -371 -662 312 0
288 390 672 -440 0
527 204 683 766 0
235 -678 -362 -671 0
507 222 -445 -402 0
679 -472 485 374 0
-250 163 792 667 0
665 258 308 250 0
549 33 -365 -25 0
739 -33 -611 180 0
-53 469 202 -288 0
-47 714 479 458 0
605 -323 277 651 0
-248 -576 30 -65 0
40 -693 136 -706 0
-190 -576 -97 320 0
611 272 791 701 0
-636 777 339 -193 0
-245 673 -362 -590 0
-472 271 153 565 0
353 -114 709 53 0
-694 -359 357 -300 0
42 -619 -641 83 0
312 -353 -367 -321 0
-784 428 -139 -486 0
453 -257 -395 -98 0
488 384 -434 -737 0
-104 -178 -772 435 0
-671 453 -402 164 0
-86 618 442 247 0
76 -447 -763 -506 0
631 -605 553 147 0
452 234 -693 103 0
-795 -544 570 40 0
-666 156 -59 -149 0
696 -149 -567 -180 0
-371 -786 380 -453 0
340 300 -605 -25 0
-725 208 -663 307 0
87 40 703 -669 0
-695 -658 110 329 0
479 620 130 400 0
219 -166 522 115 0
749 -516 -501 235 0
-407 581 -78 -330 0
792 28 -368 -141 0
300 355 -610 -759 0
-261 281 -326 53 0
387 761 -534 -250 0
-318 -654 -355 57 0
-49 -244 665 798 0
-280 -418 702 707 0
741 -150 -246 -435 0
-563 -681 136 -458 0
-251 -288 -385 -62 0
-549 -674 -561 174 0
202 702 749 79 0
653 -421 228 426 0
89 665 719 -491 0
523 -607 -724 -314 0
363 -133 -83 -264 0
-10 468 117 -445 0
-670 -688 -546 622 0
83 -784 -113 800 0
371 -266 -373 -431 0
-118 -615 -191 465 0
120 -705 -774 -692 0
-599 -363 411 110 0
-452 -557 -225 -26 0
538 -490 766 -294 0
672 735 -780 296 0
-391 -181 -507 435 0
-74 -469 427 -798 0
-191 -303 524 -233 0
426 -269 -491 28 0
397 -608 523 495 0
237 -4 29 285 0
412 747 233 -707 0
-149 799 -724 -609 0
-338 613 -229 287 0
-703 -149 -593 -97 0
-492 128 -532 198 0
-411 -668 55 492 0
745 -534 -672 259 0
-640 615 -59 -324 0
286 -560 420 344 0
-548 -679 105 10 0
-724 -321 417 -250 0
473 376 361 -460 0
-612 313 624 -421 0
217 539 707 -728 0
171 715 -49 -117 0
506 -357 -194 700 0
-200 432 124 -248 0
38 773 -47 318 0
-616 366 768 -303 0
432 241 697 -613 0
286 -751 -224 619 0
-351 109 449 -279 0
69 645 757 261 0
-109 721 -187 724 0
-239 -586 -613 268 0
-258 -326 -240 -97 0
791 482 613 410 0
667 -602 439 713 0
-139 645 285 747 0
720 111 -472 496 0
-96 429 -411 521 0
-197 -440 -464 -30 0
-301 12 724 185 0
277 97 705 632 0
-63 -422 -690 252 0
97 -558 -103 665 0
567 -278 160 -686 0
773 -377 -8 715 0
94 121 685 -754 0
-281 -9 -628 590 0
-635 -724 67 -198 0
333 96 701 -649 0
-78 -684 -799 73 0
186 -768 592 -608 0
392 729 -391 -444 0
-172 -584 356 -240 0
-67 641 555 773 0
313 -130 -288 -670 0
-182 -525 763 193 0
-552 -620 -236 244 0
-540 -391 -447 627 0
295 -180 292 256 0
-568 -338 352 -22 0
356 168 778 573 0
624 -279 -492 647 0
-433 -291 335 -215 0
46 265 -469 128 0
603 349 -281 -140 0
292 758 748 -626 0
461 -604 -552 -626 0
718 -658 -23 -444 0
-85 83 27 777 0
-459 -106 -345 -402 0
669 -347 -79 -556 0
504 679 -300 -268 0
213 377 -626 656 0
285 332 -778 18 0
-235 497 352 -319 0
-183 575 446 74 0
457 -128 308 35 0
247 -552 -332 -723 0
-309 527 74 -645 0
251 777 767 -417 0
525 -360 227 20 0
-145 -450 563 592 0
214 2 -778 302 0
726 502 -471 -359 0
336 425 -151 -53 0
-289 217 644 610 0
736 251 -239 -108 0
-451 696 432 -91 0
-226 -128 -458 -309 0
-692 -424 140 398 0
-522 -629 568 620 0
-384 -628 -280 701 0
343 -142 -602 -363 0
-29 -772 -246 -488 0
-154 -24 492 -432 0
306 91 78 -325 0
637 -603 60 34 0
419 -382 408 366 0
352 -251 -538 342 0
-206 -694 134 422 0
-781 14 38 -267 0
62 754 -252 -316 0
81 615 706 784 0
83 -89 -561 105 0
-284 -412 -437 79 0
-523 -659 -783 664 0
751 598 422 410 0
151 726 -629 -17 0
615 601 -384 -18 0
239 709 -238 -4 0
293 18 324 -285 0
-160 -69 -260 -57 0
-34 -316 497 315 0
260 -465 -751 759 0
132 -3 -193 336 0
689 -171 -740 -232 0
85 551 -766 699 0
-509 491 310 -98 0
-691 -193 -9 145 0
429 -791 326 548 0
-795 -551 374 -654 0
638 635 60 592 0
-175 568 385 339 0
386 -472 -354 777 0
602 226 319 546 0
43 -750 -57 -201 0
266 -131 721 -622 0
623 -379 589 -475 0
-602 -754 -105 -178 0
-93 -90 -303 742 0
365 -372 -201 -56 0
-315 -304 11 461 0
632 -759 418 -370 0
-417 760 -725 443 0
123 -572 -760 189 0
-613 -274 -350 157 0
752 106 24 430 0
-390 707 631 96 0
-745 -540 652 -136 0
549 -145 -428 516 0
365 -654 412 175 0
150 -32 542 199 0
764 -4 12 354 0
649 361 -505 133 0
162 150 32 -48 0
-348 631 506 753 0
-149 -625 359 -91 0
694 -525 658 24 0
17 -390 45 -295 0
14 -429 368 -308 0
622 -350 -43 736 0
-747 599 -518 -339 0
-399 -338 643 -363 0
521 -523 454 746 0
-629 639 -244 76 0
142 606 24 91 0
-10 287 494 -604 0
592 -631 -16 220 0
-263 -534 -601 784 0
297 -316 -76 604 0
-49 371 239 316 0
754 419 -486 -221 0
-674 748 404 506 0
414 642 -542 767 0
153 608 171 -377 0
163 -539 169 735 0
-158 252 383 -215 0
-745 -306 -698 -433 0
-409 286 332 565 0
-589 -487 -343 151 0
-331 353 701 727 0
-501 -282 551 -726 0
652 299 -540 -396 0
-779 124 -767 -668 0
-230 -275 628 417 0
-447 319 -115 627 0
-9 52 -580 212 0
406 -197 -39 88 0
177 288 149 -130 0
-791 -679 -615 172 0
785 261 447 671 0
-35 -282 -9 209 0
-342 225 450 -766 0
-765 -498 107 -355 0
600 -158 403 42 0
-413 -649 -718 -142 0
-714 307 -640 588 0
358 419 456 -757 0
44 175 88 366 0
673 223 -571 252 0
-563 -143 -92 163 0
-408 490 -657 525 0
-796 23 493 352 0
-103 -622 -517 67 0
705 284 -307 -99 0
103 440 283 -635 0
800 -660 -345 -679 0
-799 -327 -597 38 0
665 -726 216 654 0
674 505 -105 -345 0
3 597 -273 787 0
-711 -247 -306 -116 0
-53 -680 -49 -113 0
235 -785 -295 630 0
-269 -711 -550 496 0
-345 -411 261 107 0
-317 98 -403 547 0
322 156 -244 -149 0
794 691 -768 597 0
500 -371 -514 101 0
544 792 -269 -644 0
-760 -754 -671 -654 0
411 -608 456 649 0
501 -738 -711 -252 0
-349 43 -531 730 0
-38 126 -473 -27 0
357 -631 -695 32 0
-393 -472 587 662 0
183 -542 321 -322 0
374 593 800 -243 0
412 694 -256 -362 0
690 -365 -721 -540 0
547 552 -220 -277 0
-110 -772 -199 -627 0
-318 169 -505 651 0
231 322 -492 730 0
65 -712 275 533 0
684 12 -681 -53 0
644 -448 -374 -575 0
-351 186 686 426 0
725 798 70 -145 0
598 107 91 -130 0
-271 -642 -674 171 0
600 501 658 560 0
-314 -404 777 -327 0
-382 717 -220 186 0
113 534 100 792 0
-88 219 392 -461 0
212 566 -664 659 0
740 440 526 309 0
-83 -267 -392 687 0
-250 -204 -249 -332 0
-174 -555 -213 399 0
299 -480 -495 48 0
446 -112 557 -243 0
495 432 -670 -706 0
151 43 289 559 0
-106 -514 400 -589 0
-305 -671 -337 411 0
86 411 -38 331 0
397 257 583 34 0
235 306 134 345 0
-700 55 127 -566 0
-407 558 -146 -594 0
-341 253 69 613 0
-350 -176 412 4 0
-26 564 725 -523 0
618 238 204 792 0
-197 -699 -637 655 0
-335 -87 492 319 0
723 354 -126 27 0
-784 -91 -155 557 0
651 -597 -724 494 0
618 -465 -103 -505 0
-34 -354 421 -513 0
-260 716 -392 5 0
780 -650 -647 569 0
119 -775 -571 465 0
-63 -10 398 287 0
602 734 466 693 0
-484 -779 243 -46 0
740 743 463 -342 0
-349 -120 799 -1 0
311 718 450 743 0
-397 -21 350 297 0
369 -594 -736 -307 0
-496 -590 -485 402 0
429 350 -473 -154 0
-591 216 304 520 0
-594 11 624 -520 0
427 12 -445 389 0
-666 -736 -418 70 0
35 640 -786 -454 0
42 776 -670 -211 0
509 480 604 -189 0
-88 -57 -449 778 0
-177 192 677 -34 0
207 168 -238 -198 0
-632 -604 -236 259 0
29 387 -580 265 0
-671 134 -196 -350 0
-313 -93 140 -518 0
392 272 -260 -544 0
349 252 110 120 0
-11 -263 -171 371 0
332 -254 -455 -421 0
31 492 -571 -435 0
696 185 -44 -235 0
77 493 -36 -96 0
425 -214 607 795 0
-796 496 164 -532 0
162 -318 582 -371 0
-683 -592 -402 318 0
-555 -571 -519 -7 0
540 -500 -320 347 0
-749 721 -672 -771 0
279 69 408 283 0
-57 -276 416 -426 0
101 365 -176 -416 0
-53 236 739 -408 0
556 -194 207 -14 0
-244 706 -569 -222 0
91 -266 -344 -457 0
-275 760 680 -545 0
-98 -374 46 740 0
495 -686 136 -29 0
576 -159 -563 -742 0
579 461 4 276 0
-518 166 608 -106 0
331 128 80 -440 0
-616 169 -20 478 0
318 188 307 -575 0
134 355 616 -82 0
-669 589 482 746 0
-473 -492 -176 770 0
351 -312 638 -474 0
488 113 -346 416 0
693 664 45 -161 0
-547 -663 20 -657 0
-52 -642 32 -739 0
-363 -495 -234 -490 0
-798 711 142 -129 0
614 237 -55 610 0
-61 -103 696 -341 0
-472 -189 -187 406 0
432 586 -14 12 0
229 223 -338 -626 0
-162 590 552 653 0
632 -428 -701 426 0
362 -256 610 -21 0
-309 -477 -747 -799 0
-620 577 -17 -589 0
-465 -417 70 -661 0
-756 723 333 -326 0
657 255 128 411 0
753 -444 454 373 0
-314 -237 -701 -589 0
797 688 -605 -188 0
-711 228 343 -468 0
-227 -253 21 493 0
-214 -52 -186 -236 0
488 -260 23 -649 0
-57 248 -236 -356 0
-136 -335 99 -30 0
511 56 -602 -274 0
664 -704 -692 307 0
-161 -381 382 -90 0
498 790 530 78 0
354 22 -358 733 0
781 -71 632 731 0
322 -367 509 -125 0
528 -647 -666 135 0
124 -763 421 138 0
-374 -734 443 -244 0
-75 -321 43 -297 0
368 -684 -668 -431 0
221 710 433 25 0
112 -46 -81 -292 0
222 615 153 498 0
213 -40 -288 401 0
418 -521 485 725 0
431 611 -47 359 0
-777 -571 -550 -165 0
160 732 500 -161 0
685 -298 -459 -159 0
478 529 229 -745 0
788 410 619 455 0
-584 381 106 -657 0
-473 82 267 -397 0
-528 741 -428 -461 0
-104 -87 436 312 0
412 -213 -311 255 0
-450 -215 -603 151 0
355 -439 -340 -777 0
-248 -19 694 -205 0
-165 -426 -111 381 0
-148 -269 681 -59 0
-25 674 60 351 0
38 682 578 -601 0
647 -470 -243 -533 0
-14 -208 791 -289 0
-595 82 299 -229 0
-19 -504 709 732 0
423 -322 278 424 0
368 -103 -535 -621 0
-336 -648 -414 -58 0
294 -40 382 392 0
-189 369 -81 -676 0
529 645 -170 -791 0
413 -442 -45 727 0
500 -540 567 301 0
-391 -199 427 85 0
-289 311 -160 16 0
-258 -550 558 -403 0
-79 -308 376 -43 0
-546 -33 713 -157 0
-270 125 -619 -781 0
271 466 95 514 0
631 -129 752 323 0
312 744 -498 -420 0
-47 -226 -269 -81 0
-576 649 107 320 0
-238 161 323 -652 0
-462 40 -515 -370 0
396 465 103 -304 0
203 -108 -269 -363 0
783 -157 -469 -336 0
-744 275 -28 -228 0
-643 595 -629 538 0
726 235 -403 766 0
415 -308 -73 5 0
462 360 -240 67 0
407 -248 90 702 0
660 -341 -303 -417 0
-296 22 -63 288 0
575 388 794 651 0
530 -72 479 -13 0
55 -467 480 5 0
228 -670 -493 -321 0
-38 455 -541 106 0
-778 -434 54 -38 0
301 -89 -366 -343 0
682 678 532 311 0
384 -166 235 582 0
745 240 369 -250 0
-712 -600 -598 185 0
-735 115 -758 629 0
-222 582 -311 -782 0
741 156 201 -765 0
-338 -678 250 637 0
-680 95 -268 719 0
-128 784 -494 -624 0
573 657 -104 -490 0
-735 -125 398 140 0
-193 -380 769 270 0
611 459 16 -105 0
498 -6 -237 614 0
-102 742 554 -405 0
-130 619 -665 57 0
8 50 -683 83 0
-57 -86 335 -435 0
265 259 -790 -765 0
237 2 49 -689 0
311 682 385 587 0
-726 575 -415 -490 0
-682 269 542 128 0
251 644 -423 -372 0
-74 -791 -544 561 0
-539 -745 408 295 0
-736 -229 -30 160 0
-623 245 434 -519 0
474 -445 281 16 0
731 586 -752 234 0
153 -651 412 -466 0
598 267 -620 -640 0
-190 -630 425 780 0
255 765 -645 -440 0
-119 -77 -317 228 0
-26 329 -576 -512 0
692 676 711 -58 0
-494 544 491 625 0
17 731 -748 -273 0
183 -742 -407 405 0
75 -549 7 180 0
502 480 789 -233 0
368 -501 593 324 0
261 -738 -463 -276 0
401 -467 13 -224 0
-669 -475 442 107 0
165 211 -213 32 0
-33 761 521 717 0
-573 143 524 478 0
41 -484 -700 -734 0
734 438 -362 -781 0
-137 -7 -66 632 0
260 -690 72 -448 0
-215 645 406 -335 0
-94 -701 -727 20 0
634 311 -706 551 0
-213 -707 -49 -14 0
330 -40 158 -764 0
-279 700 -146 -656 0
-118 446 -786 587 0
-426 727 406 227 0
-572 -483 745 -693 0
-286 -259 -66 -20 0
-32 703 560 -295 0
-747 -672 98 502 0
-175 -529 -4 -601 0
19 670 -625 418 0
792 200 -126 338 0
714 167 -137 677 0
-562 -198 -467 -664 0
-59 -717 731 314 0
-693 -204 -611 -373 0
163 333 -328 519 0
-566 -552 -182 412 0
20 -244 21 261 0
520 -8 724 -778 0
317 -135 183 -624 0
709 787 -303 -677 0
-362 -578 417 454 0
110 697 -193 460 0
777 -340 -479 422 0
-700 107 90 -399 0
544 -585 -476 40 0
-172 -186 120 796 0
-63 -8 527 -201 0
520 651 -592 529 0
508 288 400 109 0
774 655 -491 -592 0
337 713 -404 50 0
498 767 -554 -532 0
-659 575 630 525 0
-795 -241 590 479 0
-9 661 5 482 0
-746 670 305 -284 0
-318 284 113 45 0
139 -395 -656 790 0
-364 582 112 -706 0
594 668 528 215 0
582 759 56 -474 0
519 322 -462 -520 0
566 74 -388 -489 0
-40 -501 711 216 0
478 477 398 -97 0
-27 658 -642 -3 0
196 -203 -733 -729 0
-596 602 619 -349 0
192 -230 90 784 0
-323 201 163 470 0
-292 639 -462 160 0
-252 -275 494 499 0
-600 -249 -728 366 0
-153 -38 -42 421 0
272 370 -578 -281 0
565 578 -256 679 0
-774 15 -429 -333 0
154 555 -665 -243 0
-430 -571 -712 -362 0
-349 -595 341 -53 0
512 511 -499 787 0
-238 662 141 500 0
-270 -695 421 -37 0
580 387 739 -677 0
-577 -18 -189 703 0
-693 24 -411 107 0
474 25 -739 -69 0
599 -214 259 317 0
-118 392 187 746 0
237 -603 753 651 0
-387 665 -625 -151 0
164 178 -428 -44 0
239 -669 475 -456 0
636 574 -332 -503 0
-561 -149 64 410 0
766 -761 27 82 0
-299 265 -426 721 0
278 -503 419 -14 0
437 -272 451 -160 0
371 473 -223 464 0
-550 268 15 -453 0
491 480 -470 795 0
527 -513 -622 -465 0
63 -614 -140 525 0
-725 -660 -775 -387 0
505 -77 -661 529 0
-556 528 11 -207 0
-484 -592 377 652 0
-179 780 -781 -269 0
703 -277 86 409 0
570 -698 268 -21 0
709 -527 799 -742 0
-41 492 -479 -665 0
292 232 231 435 0
464 -717 156 -664 0
69 -94 -36 585 0
-509 -569 -755 -371 0
-682 296 579 485 0
-633 180 34 84 0
-374 -640 618 485 0
-342 656 236 -614 0
-317 -261 779 172 0
-760 -265 -686 -665 0
-798 737 217 452 0
96 193 245 470 0
434 770 405 -760 0
118 -762 693 -386 0
786 -91 -469 -309 0
-741 -401 529 522 0
-217 346 516 -411 0
272 339 -28 -579 0
784 250 -325 149 0
93 709 59 718 0
257 421 694 435 0
-611 228 -170 79 0
215 -54 -675 465 0
545 -9 778 -41 0
355 -631 508 -679 0
168 589 -530 496 0
66 -777 289 -482 0
-313 -396 -6 -302 0
-739 561 -259 -699 0
-81 -470 -188 512 0
637 186 434 457 0
665 634 466 -604 0
286 338 526 -265 0
5 119 626 -140 0
-4 708 -337 617 0
-716 -596 214 -258 0
-286 -541 294 302 0
-417 122 -72 -369 0
246 -64 -477 -29 0
-324 238 -105 388 0
248 255 -55 219 0
-667 -733 769 -504 0
468 361 -429 193 0
-215 557 716 -15 0
-777 49 -405 427 0
-523 -340 -526 411 0
82 536 30 -170 0
78 -176 679 536 0
324 629 280 -400 0
550 514 -161 -710 0
158 46 -249 82 0
569 -472 94 752 0
-213 -443 391 536 0
-767 493 559 399 0
-191 -483 -148 -542 0
7 518 -495 -460 0
762 -8 -417 187 0
356 -773 -775 -652 0
-198 666 -133 -464 0
219 -348 -544 -366 0
474 -226 764 652 0
-459 -24 320 727 0
340 351 346 298 0
229 -593 -461 -470 0
572 -551 71 -369 0
-661 472 239 -541 0
11 305 286 -528 0
765 234 -213 192 0
-291 -558 617 -339 0
676 -434 -166 245 0
-694 -286 -164 432 0
-331 212 -61 88 0
-590 524 30 -711 0
-778 -385 148 -558 0
562 -794 -78 40 0
-212 -469 -287 203 0
-503 170 524 -786 0
-442 676 636 -377 0
507 -349 -582 352 0
332 -665 246 -705 0
118 308 -527 -374 0
230 -640 354 165 0
147 64 465 685 0
-77 -404 666 -321 0
307 -384 -504 -303 0
-681 139 -485 -646 0
-526 749 -794 561 0
700 248 177 -741 0
-293 -10 755 -720 0
-660 23 -590 257 0
-40 -371 -736 676 0
725 -28 -290 490 0
-243 -158 333 -310 0
117 209 -310 759 0
-376 485 71 207 0
-473 -438 -560 -426 0
787 120 155 27 0
-515 86 -230 -41 0
633 539 617 52 0
-694 -423 310 370 0
-605 -37 -526 158 0
-745 -713 212 97 0
642 409 501 56 0
71 -496 88 12 0
-634 -118 519 -782 0
-245 740 -211 163 0
-270 -607 -377 441 0
789 -401 -354 60 0
-367 -725 -669 471 0
121 404 27 -201 0
-668 688 763 -788 0
32 193 -778 -588 0
473 -24 14 354 0
407 -703 620 -252 0
-473 61 30 -505 0
-28 -594 -508 -68 0
222 -306 221 32 0
301 293 713 555 0
250 480 -344 -615 0
333 555 -710 -145 0
324 116 217 636 0
220 -319 -532 170 0
-212 561 728 -501 0
-247 -545 -18 -34 0
319 424 432 -281 0
-403 -237 -503 -786 0
-354 -173 -589 453 0
5 -526 106 -114 0
-183 -558 -116 -724 0
-425 -552 -391 -122 0
385 -78 92 529 0
-350 348 727 -646 0
408 -513 253 389 0
238 512 -463 92 0
-693 280 648 -703 0
-421 -435 -30 10 0
-424 -659 -141 156 0
-602 -483 274 704 0
456 -762 -213 400 0
57 -595 333 -696 0
31 -800 734 -620 0
-557 117 -72 194 0
793 20 247 -282 0
-764 -486 475 35 0
-339 730 -677 -591 0
364 -262 -292 -628 0
-87 760 770 714 0
134 487 -352 173 0
761 -736 -69 664 0
292 -714 770 327 0
729 -218 565 234 0
499 736 -94 -704 0
477 570 106 -129 0
-415 77 756 757 0
-580 309 -573 289 0
-653 -252 321 731 0
-555 207 656 219 0
416 -675 -504 588 0
425 334 -388 281 0
350 531 -574 134 0
480 -39 692 535 0
-500 -746 -591 124 0
264 261 391 730 0
-247 62 -777 591 0
502 218 750 789 0
728 190 247 509 0
-746 508 470 5 0
349 -249 177 343 0
569 -32 564 168 0
-630 -419 682 -416 0
737 209 -563 -221 0
315 413 777 -685 0
-15 194 700 763 0
-22 458 48 252 0
751 427 731 -722 0
-38 511 771 -724 0
517 278 -609 -159 0
451 -420 701 181 0
-690 -276 -349 -405 0
283 92 -792 613 0
-511 489 -592 -359 0
-784 -136 -773 153 0
232 -60 222 -129 0
-176 381 454 -229 0
473 -772 -794 -265 0
444 -528 -352 -151 0
126 -129 351 726 0
26 64 -738 367 0
-418 -615 -214 -199 0
-154 546 364 -714 0
-144 -225 510 -691 0
239 235 735 -483 0
-557 -710 599 -320 0
-761 -457 12 274 0
-648 -642 -551 527 0
-85 131 369 -662 0
225 451 104 607 0
704 694 -117 -489 0
-669 643 -396 303 0
-708 148 99 -377 0
-685 -162 -446 297 0
203 -664 -617 439 0
136 539 -570 -219 0
622 -480 -694 689 0
24 -244 169 97 0
354 372 -799 -83 0
447 445 755 -665 0
-469 -229 -305 507 0
-695 545 439 -253 0
-749 -1 237 -541 0
157 -106 334 -361 0
-211 587 693 425 0
296 -8 206 -570 0
-446 -798 -679 -669 0
33 -55 -154 757 0
-479 209 390 -688 0
400 673 -473 210 0
292 518 -463 275 0
-6 -99 595 -127 0
-738 745 24 -766 0
312 774 459 -793 0
-481 527 -366 629 0
60 -632 687 -24 0
-790 725 -673 -678 0
-770 -503 253 -733 0
506 219 706 240 0
729 -334 -134 -514 0
90 567 196 -454 0
608 542 -772 553 0
364 45 621 -413 0
-765 332 60 154 0
690 400 -288 403 0
-306 -794 -238 367 0
-192 105 703 -365 0
-534 -560 47 -215 0
-1 -307 -602 -61 0
753 -597 -126 -673 0
347 46 -773 -244 0
360 565 -419 728 0
-655 46 -44 -310 0
135 -557 -426 -732 0
322 -324 768 1 0
-494 198 -532 -12 0
302 -363 -477 -97 0
-766 670 93 -613 0
-411 -641 -742 -383 0
-758 -608 228 591 0
505 79 495 -8 0
209 725 167 770 0
-375 -18 -503 719 0
-213 144 -77 -781 0
577 791 272 -43 0
-693 75 -483 508 0
-262 -554 8 398 0
186 425 759 135 0
-607 380 -76 -440 0
442 50 659 -65 0
-685 728 661 799 0
-201 61 187 -333 0
738 -139 61 440 0
350 615 441 569 0
-108 -21 597 721 0
-50 -296 -368 -32 0
-223 433 7 532 0
-571 788 -14 -260 0
555 719 -78 709 0
566 -242 280 -436 0
414 12 605 697 0
36 -424 -135 709 0
226 701 634 -653 0
-265 -146 623 -281 0
-636 -368 -466 -667 0
-780 643 547 295 0
-354 200 -46 -99 0
646 411 -127 481 0
-597 15 -138 -703 0
-124 777 -400 -397 0
-195 316 -612 535 0
647 -692 -423 -495 0
-510 -764 503 701 0
510 -136 -212 -89 0
208 -349 -156 350 0
764 536 -635 -317 0
-58 -348 792 -154 0
204 786 -90 -193 0
-338 -628 -639 236 0
-729 -127 7 -620 0
-265 763 232 743 0
77 -288 -32 552 0
202 -698 651 -477 0
-312 -47 775 -153 0
95 223 504 638 0
515 112 669 -16 0
319 167 419 353 0
223 -696 -341 371 0
356 -131 428 219 0
201 -767 -776 506 0
-132 -655 -330 208 0
-571 -776 -192 -567 0
-236 568 -754 540 0
-452 -407 -485 -446 0
560 508 -307 329 0
-133 -57 641 -484 0
-400 -569 369 -619 0
-132 98 673 671 0
264 -270 226 -4 0
294 365 146 -606 0
-473 320 278 -210 0
-126 -700 -372 233 0
462 -169 -638 443 0
-765 -211 649 -310 0
729 556 718 365 0
537 -519 95 488 0
134 -119 -376 -587 0
225 528 -131 503 0
-220 121 -165 172 0
-450 -15 -297 462 0
756 -538 -224 406 0
-262 -7 471 19 0
362 -412 13 -4 0
563 159 -124 186 0
-218 516 -426 -551 0
437 -268 -726 -221 0
798 -369 -660 601 0
-412 -411 -676 -407 0
187 -208 -259 670 0
-284 593 -576 94 0
444 -360 -101 -158 0
-241 479 -571 699 0
744 231 -386 -259 0
347 594 359 371 0
587 -265 171 76 0
214 -782 420 -199 0
-410 -473 438 -533 0
573 -436 -74 214 0
75 599 -355 226 0
558 305 -184 443 0
-14 696 -502 -416 0
-230 625 -109 -343 0
204 423 -258 512 0
14 -90 3 -744 0
-257 472 721 621 0
-585 92 -351 -493 0
-587 -391 473 683 0
404 -122 -47 -186 0
178 59 -373 -522 0
-274 372 636 -481 0
-699 455 -633 -201 0
698 344 -316 -695 0
-641 188 -748 -424 0
521 566 -705 -549 0
775 -537 -352 -690 0
491 606 301 -218 0
-279 -509 -53 -173 0
-435 784 -360 -609 0
-456 -672 760 -397 0
-454 763 81 -358 0
-454 259 -328 664 0
248 -454 508 174 0
-766 -537 626 -408 0
-28 243 -452 358 0
538 -8 384 236 0
595 -194 192 -739 0
759 538 -44 -714 0
-215 57 -282 -90 0
-724 264 31 -322 0
529 -236 -546 -463 0
-405 479 288 664 0
-404 443 764 39 0
-202 -585 -635 -486 0
-777 -590 -291 -72 0
46 495 -547 -113 0
-531 269 -607 -473 0
-242 -23 -438 90 0
381 -277 -723 485 0
353 -685 -776 787 0
-30 -744 -414 -541 0
652 717 555 -697 0
737 -409 -98 -224 0
613 661 -603 534 0
213 -255 -511 422 0
-798 -12 502 -593 0
657 -373 -122 31 0
541 -210 780 -551 0
201 11 -234 -261 0
337 676 292 707 0
491 -190 527 60 0
519 -251 680 -400 0
505 763 -532 -334 0
274 43 565 576 0
-25 205 -191 -641 0
731 351 -159 -434 0
212 665 39 -134 0
225 -22 615 -170 0
4 251 31 -451 0
-62 -185 -700 475 0
-644 624 -366 -221 0
132 -206 -81 681 0
-394 530 130 -57 0
244 58 -355 305 0
-455 -775 498 615 0
154 -278 734 -338 0
-87 549 161 498 0
-448 282 135 -601 0
372 374 663 479 0
-82 -345 347 606 0
746 -745 636 -337 0
692 347 -16 726 0
731 -334 -755 -32 0
-298 43 -244 341 0
355 361 -616 -715 0
524 -80 -64 -520 0
338 308 458 -787 0
589 -185 -379 -291 0
-296 -755 -601 -255 0
728 -292 339 373 0
755 427 -473 -272 0
203 695 -578 -350 0
373 601 227 -352 0
-270 -640 -752 22 0
-157 -503 152 696 0
-377 -116 711 643 0
51 -58 -348 -290 0
365 638 345 -373 0
-572 680 220 209 0
783 425 -522 -56 0
762 595 -94 -31 0
486 91 380 -338 0
-736 -593 -468 -598 0
631 -699 249 71 0
531 -519 -560 -359 0
-781 -566 202 -612 0
-166 416 292 50 0
-725 223 -585 -444 0
686 242 557 574 0
-65 -574 546 -630 0
102 -771 -775 423 0
-139 757 -9 -557 0
-761 -785 415 -446 0
282 -31 264 -475 0
-507 614 445 417 0
-700 710 -563 486 0
319 -398 540 -457 0
625 -223 583 -632 0
-448 414 -319 -670 0
388 598 778 -12 0
604 398 -400 429 0
678 551 -187 143 0
-646 -662 -140 -273 0
479 213 -236 -498 0
-730 66 209 528 0
-335 -508 -514 251 0
-703 -334 692 795 0
381 -472 515 -395 0
753 135 -406 -653 0
617 -271 -220 -425 0
262 445 -364 -198 0
-155 -90 702 523 0
-141 52 256 334 0
-687 674 -23 -349 0
-561 -328 -51 -557 0
191 -727 -577 513 0
210 191 502 -688 0
-210 562 99 2 0
-80 -755 503 45 0
358 -471 671 -798 0
633 -613 22 -342 0
636 -440 98 116 0
199 -46 320 7 0
-127 227 -42 439 0
144 -112 412 -563 0
-471 113 -290 -458 0
-625 -130 -455 -289 0
-408 -45 -180 -227 0
-523 -23 -429 -782 0
-468 143 -56 -691 0
-466 742 -322 116 0
-702 448 -564 500 0
792 -73 -183 86 0
-614 208 185 -247 0
713 -237 -18 645 0
-328 -84 -429 -339 0
-149 -111 -724 541 0
423 768 542 343 0
-147 739 36 -312 0
313 -558 517 -34 0
-401 794 -374 -741 0
-324 -494 -726 791 0
-3 592 -554 -289 0
-460 34 -656 663 0
277 -452 63 114 0
566 697 230 -218 0
-460 -658 -553 -384 0
-38 364 619 97 0
-245 -32 -782 -719 0
604 86 -794 388 0
-500 -603 217 385 0
