c Random CNF formula
p cnf 600 4200
-115 26 282 251 0
-90 -433 33 31 0
559 430 -226 460 0
-433 349 -285 -160 0
368 353 271 -45 0
-566 -301 371 592 0
-82 239 -104 -390 0
215 -274 -74 -176 0
-571 -225 -333 -58 0
217 -581 323 -218 0
272 143 -253 575 0
-371 225 142 -522 0
-164 433 66 395 0
12 -118 -550 -274 0
4 -270 513 183 0
520 204 157 383 0
-1 -332 501 20 0
246 -60 -247 -581 0
546 -129 132 487 0
-217 553 -206 320 0
-463 -124 254 231 0
-8 -73 -61 235 0
-286 498 220 -553 0
-485 -417 -195 -97 0
56 101 -63 -413 0
-550 -460 144 -433 0
564 101 52 554 0
-171 -417 -498 -493 0
-400 272 466 293 0
-499 -159 195 -304 0
-322 59 52 -599 0
521 83 -191 -71 0
584 -253 593 41 0
-268 -210 322 -245 0
75 -10 -470 -577 0
-358 -71 251 -379 0
542 -9 568 -307 0
-110 -567 -160 279 0
271 518 -501 -258 0
284 46 -4 342 0
-565 438 575 -10 0
-37 -379 -597 566 0
41 -367 216 256 0
159 -243 167 -182 0
422 -255 274 164 0
-228 205 -472 -359 0
198 409 -337 286 0
-410 550 -340 29 0
-272 40 -112 445 0
-119 395 -591 195 0
-552 202 -373 -442 0
128 -308 520 317 0
197 -431 389 -179 0
294 -216 -441 594 0
-524 485 174 -87 0
-241 -318 231 204 0
-75 467 -425 -590 0
-6 110 436 -225 0
256 125 468 137 0
-454 -517 437 -562 0
254 -284 -534 -497 0
-279 -344 -328 -554 0
-220 -66 -425 418 0
-399 -599 -21 590 0
-430 -552 -560 -226 0
415 170 479 131 0
28 -86 -439 -139 0
-466 335 -346 389 0
482 -20 553 54 0
42 32 -254 -205 0
118 578 -224 477 0
118 168 319 111 0
385 407 -204 78 0
-309 -124 -580 43 0
-350 13 431 502 0
157 -446 181 535 0
-496 -477 447 -275 0
462 -250 -476 584 0
187 -500 218 364 0
283 -570 11 -530 0
247 -488 -503 459 0
314 -596 378 485 0
-361 -465 -278 -314 0
549 -190 197 222 0
-290 -103 -199 304 0
-281 47 56 567 0
-106 -13 -588 -292 0
-490 117 67 -411 0
-577 312 88 255 0
232 -536 390 -462 0
583 -62 -102 -213 0
-566 77 -161 -3 0
296 290 465 73 0
-203 -436 -118 -558 0
62 -170 -315 -583 0
-413 -279 -513 -553 0
-331 257 27 94 0
22 -276 591 -42 0
285 -186 -600 -447 0
-342 329 -108 165 0
-564 -38 466 -91 0
-527 -2 -556 474 0
453 53 -209 274 0
-125 -30 -246 -163 0
-117 473 121 -158 0
495 -484 250 468 0
-140 72 -283 -425 0
-306 -594 -502 153 0
387 -467 -330 194 0
421 45 -326 485 0
156 508 38 130 0
-451 -103 539 468 0
77 -481 -272 -347 0
547 -390 -325 500 0
295 233 93 -445 0
-171 -307 -30 -48 0
251 -544 -422 580 0
-392 -247 -510 -598 0
-10 -477 -295 560 0
-435 -257 -468 -310 0
586 -368 589 303 0
282 9 580 51 0
236 361 225 195 0
141 -100 -41 -317 0
-303 335 426 -180 0
514 280 169 -264 0
-347 118 480 78 0
407 -571 375 -93 0
-269 -599 -391 381 0
575 -336 227 65 0
-120 -144 -47 39 0
139 398 465 -380 0
159 425 -102 502 0
223 -455 456 242 0
-368 -63 408 -283 0
-218 -22 52 -342 0
-568 -213 222 -239 0
149 -134 554 -257 0
-367 -244 332 17 0
66 -488 460 371 0
45 -534 309 470 0
-437 -111 503 -455 0
-282 600 -562 333 0
441 -102 -118 -565 0
348 -465 -409 -426 0
157 -486 -69 94 0
134 570 -62 576 0
-434 53 -295 320 0
-230 111 359 570 0
-575 -571 27 274 0
360 -7 -186 147 0
-32 -94 -544 -221 0
-333 582 -87 -54 0
-454 -435 498 -453 0
114 -291 -499 540 0
8 210 -309 -217 0
-510 441 180 133 0
-363 -74 -407 -44 0
-440 -588 415 -428 0
472 -371 91 448 0
-406 -318 348 -227 0
523 199 358 -360 0
150 263 203 -178 0
-506 476 578 594 0
-331 -324 -155 -451 0
-58 -361 -520 76 0
-79 93 520 394 0
461 586 193 -330 0
-352 87 517 177 0
-163 373 382 -290 0
343 -68 -338 97 0
154 342 -84 597 0
402 133 -87 -318 0
-540 -96 -434 -521 0
-498 -197 232 141 0
553 540 39 -345 0
-186 170 -449 -45 0
-292 460 240 547 0
-199 -377 -585 452 0
-166 -205 -142 257 0
529 -128 292 -86 0
448 94 -228 -462 0
-383 -242 396 84 0
-344 150 141 -40 0
-481 -460 -6 82 0
-541 -434 -114 296 0
469 -65 114 -512 0
148 -299 -440 2 0
88 537 370 70 0
21 400 -482 -45 0
70 354 -247 -107 0
560 -347 -180 -476 0
-469 -38 -301 207 0
-528 408 -557 -485 0
49 -340 -280 -128 0
396 -348 192 -509 0
85 435 81 -441 0
-82 336 -303 -314 0
-458 44 362 -446 0
416 -373 526 164 0
36 -130 -69 242 0
-158 -461 -380 -381 0
-322 -286 256 117 0
-121 269 267 457 0
-205 126 -139 -76 0
328 356 67 564 0
-179 -371 -521 230 0
-27 370 568 587 0
89 68 317 408 0
589 -76 129 -325 0
565 187 133 444 0
312 -169 166 331 0
291 81 -257 -202 0
547 96 -515 173 0
-346 578 43 -30 0
-216 586 -427 32 0
-495 251 -416 -305 0
-476 209 349 148 0
409 -134 -380 -528 0
-254 -145 100 -52 0
-164 -336 592 -321 0
316 510 24 -93 0
-362 50 52 -289 0
-550 -9 -111 -442 0
47 -411 -53 -584 0
-462 -564 -287 122 0
572 -375 -148 -204 0
-342 486 -532 468 0
327 167 403 -307 0
-577 307 487 18 0
28 486 272 -593 0
390 152 -249 -33 0
-429 156 423 209 0
64 142 -532 -213 0
178 471 546 351 0
-271 -496 197 253 0
-296 213 501 325 0
-295 125 588 557 0
150 -298 44 295 0
-491 220 -207 -552 0
-246 -249 -52 -544 0
484 103 -141 6 0
-488 489 205 -295 0
588 -238 548 -39 0
38 407 508 191 0
10 -306 -582 110 0
-537 -506 -138 -517 0
470 264 191 15 0
-180 -416 -438 528 0
-489 -332 255 7 0
-310 -597 -587 12 0
477 315 164 416 0
-121 -303 -377 227 0
383 426 563 483 0
84 -539 458 -541 0
561 -518 208 -587 0
211 -598 -501 -94 0
426 468 -578 -60 0
-261 -4 224 593 0
-62 -71 -484 33 0
431 384 -392 460 0
-553 137 357 122 0
-229 4 -24 -306 0
-236 -254 472 355 0
-33 -430 -17 247 0
-50 251 46 412 0
144 516 -297 240 0
329 243 -310 -147 0
-571 180 438 570 0
-538 -327 427 -419 0
231 308 148 475 0
-138 398 249 262 0
-95 549 196 53 0
-193 573 -223 491 0
217 195 121 -491 0
-246 566 -330 -290 0
526 510 478 -101 0
-209 380 321 -424 0
-567 -599 -594 428 0
-252 512 564 346 0
-503 472 -173 361 0
556 -61 537 -35 0
-7 -423 -141 -237 0
-62 495 -500 17 0
282 549 -294 18 0
-184 -110 99 537 0
274 -407 -81 383 0
-308 -83 -33 96 0
176 -85 512 445 0
541 44 236 -217 0
77 -288 557 -578 0
-213 148 408 79 0
554 340 -394 144 0
-355 -55 101 448 0
407 -335 -31 280 0
385 -443 191 600 0
-76 85 -275 -158 0
370 -110 94 -6 0
90 192 -442 -460 0
-568 -96 333 395 0
-573 -249 -586 -534 0
-505 -150 -65 -172 0
-258 -253 -508 -201 0
-390 338 451 343 0
-308 329 206 -491 0
-503 590 -249 -334 0
578 205 559 -185 0
215 449 -299 -71 0
311 248 -259 158 0
491 597 411 548 0
369 550 -88 112 0
46 -577 -410 -340 0
523 -532 -572 -595 0
-513 -155 354 -26 0
-146 -357 -320 -352 0
-449 464 -327 69 0
-112 -169 250 529 0
238 -415 -189 191 0
-203 -461 -440 399 0
-65 -592 -105 -550 0
502 541 -321 398 0
-177 -305 -87 -138 0
145 524 -398 -429 0
-551 -178 -569 -171 0
-55 368 10 497 0
507 -419 -504 426 0
-226 -300 34 282 0
508 -563 524 116 0
-556 -43 452 560 0
-254 305 -34 461 0
121 243 -215 360 0
212 61 -584 360 0
300 297 587 274 0
139 -422 61 -284 0
-330 254 403 -502 0
78 96 413 -528 0
500 336 -596 3 0
-367 -65 -548 -408 0
-291 346 561 592 0
-50 48 -102 -471 0
-439 208 -136 310 0
-257 85 381 170 0
-440 -94 98 2 0
456 10 -9 -352 0
73 -235 -393 92 0
-141 392 137 -147 0
360 -219 -156 422 0
144 -127 -394 -360 0
87 255 567 292 0
-309 -211 531 522 0
-246 507 -396 116 0
-13 370 -325 136 0
177 -483 -75 18 0
408 -519 -294 514 0
-551 157 -285 86 0
-550 -335 401 -68 0
-251 89 -445 119 0
180 -123 13 141 0
266 171 381 -130 0
31 -344 440 279 0
-509 467 -524 -369 0
106 -588 119 -234 0
48 -484 373 -393 0
-430 230 -330 -255 0
-382 123 515 54 0
-71 477 -290 -319 0
-578 312 249 476 0
560 -252 155 7 0
10 344 -2 386 0
244 -430 -504 -62 0
-238 533 423 382 0
-404 77 -582 -64 0
-323 -403 335 -326 0
-599 -112 -160 109 0
-213 -463 -316 475 0
-42 -221 -336 152 0
307 267 179 32 0
-97 -474 105 -144 0
203 -411 382 -87 0
-67 203 455 -132 0
-473 52 -173 -588 0
437 -177 -363 -220 0
252 -303 -511 -422 0
430 205 539 256 0
-368 492 -558 -497 0
27 327 -225 31 0
543 -367 599 -239 0
-58 225 590 -398 0
326 368 29 -361 0
-505 -556 -317 -180 0
540 -490 -1 340 0
332 61 23 152 0
374 -75 -383 406 0
448 499 325 179 0
-366 229 -180 388 0
-587 -401 582 34 0
-580 -107 -509 -145 0
-91 -344 -458 -12 0
-111 -2 -50 -396 0
-388 -360 560 385 0
231 -167 -463 -76 0
108 -76 -351 175 0
-96 347 495 -32 0
55 -104 340 211 0
-554 -272 289 305 0
-158 -56 370 4 0
-205 -100 -27 212 0
316 -408 483 -501 0
-380 -391 -379 -192 0
276 578 -64 -155 0
-555 -424 233 567 0
-487 -587 242 -488 0
-585 530 -586 151 0
-217 198 -130 44 0
-152 265 328 69 0
533 -470 -13 536 0
597 103 109 577 0
421 -271 -393 -498 0
412 -40 -406 -340 0
-382 21 346 311 0
234 -138 308 454 0
92 -193 -453 217 0
-383 58 -528 163 0
-537 583 30 -178 0
-468 52 370 204 0
-127 -32 248 -382 0
565 -359 353 -168 0
29 396 -51 -167 0
231 212 276 420 0
-486 136 178 9 0
-282 -434 -386 358 0
407 599 105 -8 0
-290 306 111 494 0
268 -306 -193 154 0
414 328 -144 -27 0
398 -37 598 586 0
488 368 520 -308 0
100 483 132 265 0
-344 92 -228 364 0
-381 -267 -600 302 0
595 73 -484 -200 0
-56 155 141 206 0
-147 324 -185 83 0
5 -463 281 -215 0
-91 133 -445 -440 0
205 383 -15 -330 0
-255 -232 353 -320 0
47 306 -298 467 0
138 -351 502 368 0
-20 -234 230 -135 0
39 385 -262 -548 0
-21 -50 -119 427 0
211 10 -309 431 0
141 -429 -108 -524 0
204 -205 -270 -536 0
-562 -509 213 493 0
588 -506 153 93 0
-237 -468 -304 -271 0
298 -369 321 -437 0
142 175 -337 367 0
-382 351 -188 -117 0
-490 432 171 116 0
107 -427 -495 -583 0
-30 -134 -495 -500 0
322 -13 538 591 0
532 -536 -98 444 0
-395 153 572 -56 0
-508 -170 -77 504 0
-564 -388 413 -241 0
511 458 -324 -122 0
37 571 563 1 0
521 -576 -212 -468 0
466 -340 -574 -485 0
228 3 -350 364 0
-109 47 169 -505 0
-201 193 -124 -403 0
-425 48 127 462 0
5 544 -50 567 0
-182 593 178 -132 0
-394 -429 -255 281 0
142 423 -525 307 0
567 -223 -206 215 0
183 516 556 331 0
428 547 -293 -433 0
58 205 -274 -165 0
-303 -209 555 34 0
-576 230 575 -399 0
49 391 -397 427 0
14 258 208 454 0
-560 202 -199 302 0
-527 123 -387 42 0
262 -6 -339 -478 0
53 -309 503 587 0
-189 534 -70 -518 0
-219 340 370 301 0
-10 118 355 -457 0
-41 329 -391 117 0
-384 -527 521 -457 0
85 99 -172 551 0
219 435 107 211 0
74 -158 -25 -471 0
258 572 -73 -589 0
-415 -444 -324 18 0
-65 600 -47 75 0
-89 289 -449 391 0
140 -401 559 303 0
-383 -12 567 -569 0
561 88 -313 -216 0
-525 146 -165 -189 0
581 -56 563 -473 0
-203 595 -499 -339 0
-72 199 -326 498 0
580 -581 -374 324 0
447 -284 -369 -138 0
-313 499 565 112 0
144 552 202 270 0
-520 32 596 593 0
-557 -553 484 153 0
298 -138 476 514 0
-170 527 144 457 0
-150 -496 -368 -42 0
-44 212 531 -370 0
332 -106 534 -281 0
-388 375 -80 -530 0
354 -499 -494 -7 0
-288 217 154 192 0
425 -339 117 494 0
-421 23 -250 45 0
-587 -151 58 171 0
-578 20 -291 -88 0
225 -421 147 -597 0
-351 -465 -71 236 0
-517 430 154 99 0
-545 -516 121 96 0
442 535 -431 380 0
-494 -391 -359 -590 0
-86 -291 557 -419 0
-536 -121 533 -8 0
-110 159 -437 -600 0
283 407 -209 424 0
-496 260 315 592 0
-122 236 458 166 0
54 165 -399 6 0
-91 66 270 228 0
411 534 294 -59 0
-207 531 293 -200 0
174 37 -369 -245 0
410 362 405 -416 0
93 -563 292 -573 0
-200 -466 414 589 0
516 302 349 120 0
589 257 454 387 0
-470 -472 29 494 0
236 -324 423 -362 0
96 -409 -351 -78 0
-588 -276 188 195 0
212 -235 208 -256 0
81 505 -7 -555 0
589 282 -503 -188 0
591 -132 56 539 0
404 -179 469 -124 0
-216 389 -595 104 0
-243 -276 -483 352 0
-382 374 411 287 0
-103 -277 -242 569 0
-154 -485 10 181 0
-547 324 -499 -308 0
-168 62 -221 -261 0
370 -369 -574 -571 0
-204 591 -590 552 0
500 -458 81 391 0
346 -432 -586 -415 0
-325 -299 274 -405 0
-534 -462 424 172 0
-82 -216 171 407 0
-27 407 -537 86 0
400 -317 -235 254 0
175 -30 -36 366 0
-554 279 562 456 0
468 578 446 -537 0
-233 -92 -453 -316 0
140 353 -294 481 0
307 10 441 -300 0
-575 448 -405 -256 0
270 82 433 246 0
-279 292 -545 -276 0
-467 -464 -279 504 0
-191 -105 -289 -276 0
-16 506 -223 -351 0
-33 339 -83 -150 0
-197 257 -391 13 0
-454 254 35 204 0
-485 399 320 331 0
-126 260 493 -306 0
-116 242 445 -333 0
249 -10 44 -596 0
-92 255 162 512 0
62 -365 -158 550 0
356 -450 -198 22 0
497 -449 573 302 0
-332 480 -282 568 0
555 376 465 1 0
373 245 -329 65 0
-510 565 -158 290 0
69 -45 -133 -183 0
585 398 -502 -539 0
73 14 -214 504 0
370 -572 426 378 0
73 -312 80 222 0
195 198 539 255 0
109 -591 -367 470 0
564 412 517 346 0
-323 564 333 -381 0
-247 577 559 -220 0
464 459 407 1 0
-310 -7 308 228 0
283 567 -524 -570 0
160 -142 -272 -376 0
585 410 583 -223 0
591 98 -308 -39 0
343 -357 445 427 0
12 -392 56 -313 0
227 157 52 -403 0
-443 -297 404 -152 0
-409 269 88 -514 0
-203 500 405 -586 0
74 273 -441 -332 0
-375 357 196 -329 0
-359 453 -150 -452 0
88 116 56 249 0
-15 -352 -114 313 0
209 560 536 265 0
-19 -386 -597 540 0
-278 55 477 9 0
369 111 -20 -300 0
-102 -324 497 545 0
-23 -41 254 -543 0
361 364 -310 -242 0
264 -397 -31 -569 0
141 90 392 -534 0
247 587 -157 437 0
212 -142 -595 555 0
537 139 -441 -149 0
546 -122 -189 -326 0
424 422 311 454 0
-156 193 110 -135 0
-581 237 -238 27 0
-481 -383 -189 -397 0
16 277 423 -228 0
450 -502 333 469 0
390 321 404 586 0
534 -112 463 468 0
406 41 -572 -397 0
-408 -312 293 473 0
146 -475 463 93 0
-560 -139 -403 424 0
-207 466 93 -257 0
127 -94 117 461 0
-524 164 388 564 0
154 -167 -149 184 0
457 296 -186 121 0
13 -470 510 -511 0
-488 465 -420 453 0
-571 213 -51 190 0
-592 -306 -340 90 0
587 -576 -182 467 0
331 378 -389 -70 0
-125 -282 -338 -540 0
586 542 90 496 0
438 325 266 539 0
509 533 -510 -505 0
-199 2 122 -25 0
-425 424 -47 342 0
-289 261 70 -316 0
342 -350 -406 -583 0
347 -491 486 37 0
550 -344 474 424 0
-324 569 549 20 0
363 -68 -153 288 0
170 585 399 192 0
-323 33 -279 424 0
-310 222 538 180 0
455 -519 -26 -495 0
537 -318 336 147 0
-136 211 -38 -471 0
46 -90 342 479 0
-24 -592 -320 -215 0
-452 -121 280 153 0
105 -212 556 359 0
-588 251 176 -73 0
-30 -483 -52 109 0
457 365 320 341 0
477 582 -135 -96 0
-477 482 -238 -230 0
-188 -339 -333 -465 0
-175 -290 357 589 0
334 -570 -73 310 0
-562 -163 494 -394 0
446 -581 351 558 0
-588 -499 -118 -475 0
-416 72 -112 -389 0
143 -595 -1 151 0
-458 201 211 325 0
-446 353 -92 -597 0
302 -64 379 563 0
-113 289 32 241 0
-416 -391 -446 559 0
369 428 -158 -296 0
17 -148 -499 448 0
467 436 -185 -466 0
-191 435 8 -592 0
560 591 376 -35 0
494 82 146 -540 0
-81 536 91 -252 0
553 594 -320 -55 0
-481 588 -340 -432 0
312 578 267 63 0
-299 28 294 -497 0
-136 -288 -282 264 0
-155 458 -379 180 0
34 352 87 149 0
423 -393 244 451 0
-56 -271 -119 54 0
-546 -240 389 -400 0
460 -392 324 543 0
-443 -280 344 -277 0
248 200 -533 -346 0
-9 -70 -13 -422 0
-291 -258 198 35 0
223 -125 123 89 0
-580 -190 114 189 0
-284 -438 332 -264 0
-341 -62 265 -272 0
-403 183 -504 112 0
-453 266 -106 -36 0
510 -153 1 39 0
-589 -4 528 503 0
-72 554 232 -4 0
-549 368 342 -311 0
548 -349 -83 471 0
394 196 -307 -400 0
-449 195 144 -37 0
65 554 -316 512 0
38 -348 -58 346 0
536 -470 -550 153 0
-501 20 -483 47 0
315 -100 468 -175 0
-226 65 208 -437 0
-124 590 -559 -141 0
-178 344 -65 -124 0
-169 -450 250 596 0
-162 -17 -499 83 0
-291 427 488 -130 0
179 -39 185 -512 0
-429 5 572 242 0
553 520 -225 -476 0
-153 486 -510 -181 0
215 446 -258 -343 0
54 -551 -181 162 0
-456 594 -334 430 0
334 234 -101 -243 0
483 -600 497 -56 0
397 383 140 -469 0
-131 -33 -583 -62 0
352 226 303 -161 0
567 -236 89 422 0
474 -286 -15 439 0
153 -588 -6 428 0
-35 436 544 -404 0
247 -86 -572 -13 0
245 -93 -17 492 0
598 25 -466 475 0
-380 476 2 -73 0
277 -556 590 213 0
-57 -528 373 -53 0
180 -573 69 -575 0
117 490 -595 215 0
-516 -434 -284 56 0
126 -482 -545 546 0
-68 193 -469 90 0
112 -169 283 115 0
24 -301 -427 555 0
-22 299 194 65 0
344 422 -593 352 0
-543 -562 456 -469 0
267 233 -496 -381 0
-467 171 165 549 0
-158 -166 -244 -120 0
189 211 -576 -36 0
167 -547 -309 -125 0
470 328 160 5 0
303 486 297 588 0
-347 116 -491 -42 0
-226 457 -366 95 0
285 -201 24 -86 0
-525 404 200 503 0
-370 -408 -152 -438 0
457 -575 90 221 0
-296 168 -435 -425 0
487 538 -344 -68 0
-280 425 180 -570 0
-391 297 568 -503 0
573 -475 -230 28 0
-484 128 295 -428 0
284 505 69 371 0
488 -123 -383 525 0
-150 -328 -473 139 0
365 50 297 299 0
-188 -97 172 557 0
278 372 -99 548 0
382 -497 -422 349 0
193 573 539 -545 0
-79 -120 -135 18 0
-536 351 -177 312 0
-146 233 -315 129 0
115 -80 -20 496 0
526 -61 -481 -122 0
-99 -127 -211 205 0
-285 594 357 -361 0
584 70 102 593 0
176 551 5 -102 0
190 451 -110 186 0
-418 116 -322 -127 0
-296 -571 -42 85 0
-320 455 -232 568 0
488 -377 -184 -14 0
-88 123 -147 405 0
-173 67 373 -204 0
435 512 286 596 0
365 -488 -415 -497 0
-502 510 237 -138 0
-28 184 -392 -335 0
-533 -505 478 207 0
554 560 -19 -33 0
-386 454 471 -37 0
-169 -504 442 138 0
-503 568 -553 -586 0
270 -507 -387 362 0
-132 376 -358 -598 0
-354 -366 -422 -360 0
-87 -68 -313 -118 0
-433 582 528 432 0
387 585 -400 331 0
-345 -509 515 -348 0
-78 -549 220 295 0
-95 593 98 -345 0
356 -79 310 -517 0
412 258 528 465 0
-529 192 591 -512 0
546 -445 -580 -62 0
308 446 421 327 0
274 -294 -165 -263 0
-29 252 -318 476 0
-207 164 -280 140 0
44 -498 21 57 0
417 373 -93 -407 0
513 124 -535 595 0
244 126 321 338 0
-434 224 -148 -110 0
58 -503 547 -384 0
-253 -285 -149 372 0
36 -56 246 -260 0
-125 548 -243 454 0
-262 309 -93 -242 0
325 417 35 -281 0
423 341 433 -103 0
561 335 -465 -29 0
140 -4 -411 -205 0
-529 134 -421 -328 0
-336 -289 204 87 0
585 230 22 24 0
-474 204 269 -173 0
-377 175 581 121 0
-507 122 230 -209 0
507 392 134 -442 0
194 -429 185 -419 0
462 -255 -379 -597 0
332 408 -218 -393 0
-61 -54 341 241 0
47 -6 -260 -517 0
-573 43 595 184 0
-136 -92 -325 544 0
-512 288 370 441 0
271 -530 321 447 0
-155 -570 -451 -55 0
168 479 -447 -119 0
-575 497 -469 -505 0
209 291 185 173 0
218 -598 5 -539 0
-511 97 -337 -27 0
-109 332 158 -30 0
276 6 -338 45 0
583 -133 217 50 0
-561 -391 95 -409 0
22 -214 167 398 0
124 306 503 443 0
-368 -99 -377 -525 0
434 -93 -433 -378 0
350 475 230 -159 0
-480 448 82 -490 0
255 536 438 303 0
-523 436 423 -97 0
-600 84 -516 -17 0
403 -47 86 -427 0
-461 -272 350 -192 0
-109 -445 -548 -19 0
415 499 311 370 0
-90 129 139 -15 0
28 -215 493 149 0
-196 -89 -309 475 0
456 497 -483 21 0
-402 53 -342 -9 0
-508 -593 568 298 0
-500 238 63 -541 0
428 485 -120 -507 0
-166 -295 -197 481 0
348 -480 -135 301 0
-369 484 166 -213 0
205 161 -504 -104 0
571 -49 -19 368 0
-516 33 -66 -346 0
265 349 364 48 0
528 107 52 449 0
-105 576 43 520 0
-161 300 -453 -519 0
142 126 -207 450 0
-486 -350 294 -518 0
252 -156 -543 432 0
-470 529 371 31 0
-72 87 -347 -323 0
38 155 589 60 0
303 430 -412 -567 0
-287 -541 151 414 0
453 -354 415 -203 0
-130 533 -554 -291 0
164 -24 29 553 0
-518 114 -62 382 0
128 -460 306 587 0
-596 -580 547 240 0
-144 387 -533 254 0
466 -101 -151 436 0
-488 220 457 80 0
405 271 599 511 0
-427 167 -148 518 0
-542 121 218 -467 0
-122 -419 113 -124 0
-313 384 -311 302 0
-50 313 -291 221 0
70 46 428 493 0
487 136 142 -517 0
-334 -92 420 397 0
454 285 91 170 0
-575 127 573 -88 0
584 -535 194 488 0
20 282 211 -252 0
-547 329 -412 -47 0
-25 -541 -325 -392 0
-148 188 262 -92 0
-334 -186 -28 60 0
-265 385 124 -54 0
-517 -395 -118 -276 0
418 240 -20 276 0
-129 312 582 417 0
146 383 -554 173 0
463 43 2 -476 0
62 -494 -280 257 0
-600 523 -289 -47 0
126 -144 570 287 0
-351 268 -464 -280 0
337 -17 -137 -3 0
-570 501 403 552 0
456 -127 -362 386 0
9 -128 -474 -380 0
288 367 197 -93 0
-506 372 38 -288 0
406 -114 -285 583 0
579 -180 67 132 0
536 281 197 -24 0
574 465 -3 438 0
443 -417 -281 125 0
230 -49 -285 -431 0
586 26 -232 -434 0
-65 -100 29 492 0
-257 -254 -111 -485 0
243 75 -450 -98 0
35 -387 321 -67 0
443 -68 -105 -58 0
-421 239 11 465 0
-348 -27 -465 530 0
70 -199 -587 130 0
456 -191 -249 -141 0
367 -319 -598 -555 0
-378 9 531 149 0
433 -353 -201 -206 0
488 -479 -340 -593 0
-108 -466 -44 -508 0
219 -245 -493 340 0
-7 372 -11 -76 0
-600 -369 -45 -31 0
-179 -348 568 252 0
-22 -141 -389 -114 0
382 -176 -540 445 0
195 -197 -546 388 0
48 -194 -549 302 0
-130 -521 -599 501 0
67 172 521 -398 0
476 -184 330 -383 0
-596 411 -598 -38 0
224 314 -436 387 0
138 -87 -303 456 0
-345 -437 -462 -479 0
-26 -184 453 -240 0
514 526 -560 -81 0
-40 -560 -206 342 0
282 -196 -142 557 0
-414 416 594 -13 0
-408 234 233 215 0
473 -349 88 -321 0
-450 461 -572 31 0
-10 -512 364 348 0
551 -307 -334 24 0
339 -582 -588 401 0
193 -487 112 -337 0
107 567 -182 -33 0
-396 291 -211 -239 0
-12 176 -335 -421 0
71 -399 212 134 0
163 589 -318 -208 0
147 -457 -66 409 0
-503 -472 474 590 0
-356 -305 401 -180 0
-394 188 -583 98 0
281 551 -299 -69 0
567 125 378 -79 0
-169 -259 213 519 0
473 -391 -352 -409 0
-140 -335 476 497 0
449 -144 -483 -286 0
-302 128 -548 -401 0
452 367 183 -222 0
49 -536 106 -400 0
387 -207 -256 -384 0
-15 346 197 65 0
-172 -46 426 -525 0
-213 -555 -405 -439 0
-412 -324 13 -399 0
-378 45 -69 224 0
550 583 176 258 0
137 341 -180 -326 0
600 -460 392 524 0
-239 -22 -128 -317 0
-141 -384 511 -304 0
-455 337 -138 285 0
425 -296 -25 235 0
-255 -228 -391 534 0
72 -198 -54 145 0
-210 -242 -520 -81 0
-435 -181 255 -311 0
-493 -82 -369 408 0
444 -160 -494 21 0
308 -551 -157 -567 0
-385 576 -493 74 0
-5 14 513 384 0
383 394 -502 -316 0
-128 -395 -580 167 0
357 522 501 378 0
249 490 36 371 0
-268 467 151 -261 0
120 95 -394 408 0
434 170 438 259 0
316 422 -92 -112 0
215 408 -316 -7 0
428 -538 -427 296 0
203 -499 187 -515 0
61 188 -197 266 0
-112 -171 -82 -301 0
-241 -490 497 104 0
43 -100 217 535 0
273 -498 485 -346 0
-323 -246 -370 -409 0
103 4 -468 412 0
-544 287 255 378 0
193 4 330 18 0
455 240 -497 410 0
488 103 395 301 0
517 -33 131 510 0
-479 173 -457 -119 0
-92 109 446 30 0
226 264 488 -127 0
341 -230 590 67 0
-391 -576 -448 -239 0
-193 -119 -587 377 0
319 64 -549 -195 0
-130 533 -228 -110 0
-304 -225 512 467 0
36 -328 317 515 0
490 -221 507 -299 0
216 231 -54 184 0
-164 23 562 402 0
-401 74 541 290 0
100 -135 332 -595 0
168 -592 -141 -453 0
-201 10 371 -590 0
-438 -173 58 -99 0
528 -347 -445 -153 0
501 310 177 -385 0
-475 -392 -282 -456 0
522 -231 24 -587 0
-186 -394 -496 445 0
-551 190 416 21 0
66 532 -599 552 0
121 186 -185 -6 0
-212 166 -90 -576 0
-306 373 -558 -176 0
-532 -301 -547 456 0
361 552 -523 -215 0
146 -307 -221 -138 0
-433 77 -564 -262 0
-261 436 -147 549 0
198 -382 -578 524 0
-445 -389 -27 254 0
68 338 -92 372 0
281 -11 101 387 0
127 180 -540 -314 0
586 289 -565 278 0
399 186 -354 545 0
266 -10 526 -160 0
-380 256 429 469 0
-283 439 534 -235 0
321 93 -82 -79 0
293 -568 505 11 0
492 -510 528 546 0
-8 436 548 354 0
541 44 460 -173 0
-77 -376 -137 -527 0
116 347 -256 -553 0
-272 219 3 583 0
-528 -37 -475 -500 0
-110 -6 -359 -191 0
-542 -527 -158 421 0
-232 -482 -405 384 0
-112 -450 -166 144 0
-204 -114 195 292 0
-165 -204 -491 273 0
131 333 410 -514 0
-111 -22 130 -160 0
-351 -440 -9 -445 0
-157 -524 -192 256 0
440 204 -486 106 0
-153 -235 -124 -136 0
-19 205 94 53 0
-228 -345 -437 -491 0
-373 288 -360 -429 0
-330 218 -293 -484 0
-504 373 343 312 0
134 340 370 -371 0
-283 -216 599 394 0
43 -196 198 -457 0
-486 -207 547 -158 0
574 -356 -375 -460 0
537 516 -23 -171 0
-580 63 195 -408 0
449 -522 -394 -576 0
164 586 -224 10 0
-538 -266 -311 -226 0
547 244 -299 -41 0
-53 255 216 548 0
333 -86 563 -271 0
59 -11 -365 -225 0
598 109 392 264 0
226 333 276 -209 0
238 -445 -378 -152 0
181 -194 -584 -503 0
-182 -404 -193 72 0
413 103 540 -141 0
-22 113 -14 45 0
14 -10 109 -556 0
-492 -577 -455 168 0
274 -557 -127 22 0
-426 -146 -2 230 0
-232 -394 -116 504 0
-366 79 -342 -122 0
-155 -183 -439 544 0
-309 -294 -357 -107 0
-79 -3 153 151 0
-490 69 -116 -592 0
-131 -187 395 -362 0
-342 -142 252 393 0
236 394 86 595 0
-225 90 -241 371 0
-137 113 62 -358 0
-472 148 -565 -432 0
-147 387 27 -435 0
-162 -31 -151 375 0
427 154 187 -482 0
-422 -346 455 -14 0
-178 -516 165 -12 0
265 -586 -514 314 0
-535 -387 -129 217 0
-573 80 480 -489 0
-381 -435 200 277 0
29 -246 289 167 0
317 -193 -565 207 0
-579 -46 578 -496 0
-366 290 408 513 0
-100 340 -418 516 0
-392 489 -39 298 0
238 221 145 165 0
-536 -350 459 -135 0
397 245 214 -77 0
16 147 317 -561 0
-466 -322 -174 -303 0
184 472 -265 485 0
-127 -583 -500 41 0
133 452 -376 525 0
519 461 270 -44 0
-575 -9 -159 -108 0
-398 474 96 -358 0
88 -185 -111 -407 0
-498 -218 -488 -118 0
219 328 -582 33 0
-441 -485 219 -56 0
-259 -181 -86 146 0
-430 -538 220 -266 0
305 -169 204 358 0
448 364 585 -399 0
-593 149 332 -325 0
325 -117 -417 270 0
-129 461 -593 100 0
-171 -387 222 357 0
380 373 17 310 0
-467 424 421 361 0
-117 181 -470 -439 0
292 448 -291 102 0
-422 -107 509 -558 0
297 431 -217 229 0
128 360 476 -423 0
-384 230 -520 291 0
-425 -248 -5 34 0
326 -344 175 -586 0
-403 53 592 -440 0
-326 530 -163 -448 0
-591 -402 -267 -567 0
12 -157 -29 557 0
-134 465 -367 192 0
-252 388 267 53 0
594 -106 -114 -471 0
185 96 -80 -507 0
23 -424 76 -499 0
-322 462 165 185 0
-33 121 352 -356 0
261 125 198 -31 0
-374 -118 223 31 0
275 -281 494 -205 0
508 -447 -525 410 0
288 403 -106 -598 0
500 -444 -457 -434 0
-393 440 205 -581 0
-35 524 260 420 0
-361 -408 31 -118 0
75 -221 -381 -149 0
337 219 477 -582 0
218 540 223 106 0
-77 -588 -432 446 0
-511 -48 282 432 0
-243 591 22 -292 0
-473 292 135 -413 0
17 -72 -482 -98 0
355 -410 -82 -570 0
466 -506 -125 383 0
-143 -108 331 447 0
551 -6 -54 -266 0
271 338 389 -277 0
327 152 599 -424 0
490 -502 -288 330 0
85 362 -572 -249 0
507 -62 -218 -14 0
349 214 -541 -527 0
-158 -517 109 134 0
-526 -208 410 193 0
592 105 -151 473 0
192 -274 -30 488 0
-87 363 442 -218 0
280 379 -101 -51 0
413 181 -283 -543 0
-255 -114 -225 -118 0
-104 -283 232 415 0
275 -508 -211 176 0
4 97 190 516 0
-245 -175 -323 72 0
-486 -439 -343 22 0
-10 361 -486 -598 0
18 -581 -298 -234 0
312 344 -464 -503 0
-374 -470 14 362 0
496 -116 277 532 0
-146 366 510 -32 0
92 199 387 111 0
461 -540 -180 272 0
283 317 196 -43 0
-466 -581 356 -296 0
154 -536 -297 572 0
-16 465 -42 -223 0
-441 -361 -1 52 0
-575 159 -89 278 0
298 -225 33 -485 0
409 -101 -268 310 0
-593 143 -205 -257 0
-581 473 -559 -188 0
-453 -321 -516 -367 0
-29 -573 28 432 0
595 525 383 -131 0
-403 129 413 7 0
-87 -57 -277 -110 0
340 63 -125 -599 0
-148 576 508 -140 0
-319 -7 497 -206 0
-100 254 -210 -107 0
125 308 415 496 0
450 -127 443 150 0
-175 -524 560 206 0
-505 377 -282 401 0
-152 -29 291 -469 0
-456 44 -364 143 0
-367 513 -516 -216 0
-156 361 -577 348 0
-311 -404 70 496 0
520 539 266 133 0
414 -70 -47 -31 0
-488 332 238 -243 0
-431 66 -64 257 0
31 -179 329 111 0
-205 -201 -259 -503 0
-542 197 -89 -597 0
144 6 -369 418 0
541 -509 -195 213 0
-573 -142 -69 -450 0
-530 -306 104 -121 0
-297 258 400 -367 0
-590 248 531 513 0
-597 -483 -270 31 0
61 -143 210 561 0
64 242 506 75 0
37 355 -73 427 0
-133 278 43 -107 0
-311 234 -22 57 0
-389 19 566 -494 0
-438 563 142 -119 0
-199 -352 -448 -60 0
550 -582 -47 -16 0
-450 185 290 45 0
133 -408 491 -126 0
366 226 -455 310 0
540 -274 327 555 0
498 287 81 -209 0
567 216 -126 -382 0
-451 -465 -117 -22 0
-87 62 -286 -394 0
211 389 -189 442 0
27 -345 269 -222 0
-438 59 112 567 0
548 475 -435 587 0
-479 244 -136 16 0
-556 303 -346 585 0
13 128 315 -583 0
-18 -451 10 478 0
-419 60 -594 -82 0
185 -265 283 -266 0
-51 239 -118 -40 0
567 -234 63 266 0
-554 46 -241 -359 0
209 334 -585 -381 0
290 -147 26 335 0
-384 -482 302 32 0
27 109 217 321 0
-353 221 -388 597 0
81 80 230 -579 0
125 541 -53 -484 0
-590 301 -250 -337 0
-119 -247 456 420 0
-496 236 460 429 0
251 418 -599 -142 0
419 432 518 152 0
-465 16 171 -124 0
-104 -130 -35 442 0
-543 398 -433 -363 0
345 -111 -47 -76 0
461 447 297 489 0
522 -86 156 -8 0
450 -181 -521 -287 0
578 531 -538 -594 0
-183 -147 43 -216 0
-356 -292 -170 -122 0
-266 -109 238 286 0
29 -41 553 -551 0
209 289 585 -437 0
-113 -123 -456 -443 0
120 -363 81 -228 0
-526 76 323 -40 0
-572 -37 9 252 0
272 482 -156 -497 0
-91 -529 220 4 0
40 -429 -270 390 0
185 -308 238 300 0
-557 493 303 99 0
430 -458 -334 -254 0
117 -356 408 -132 0
-422 -241 30 -298 0
-576 331 -268 -326 0
-56 275 -498 -225 0
587 -171 549 212 0
133 -553 21 22 0
-567 65 51 532 0
406 -235 -298 166 0
-14 -37 -21 -540 0
-309 25 236 -254 0
-411 135 277 87 0
-21 16 -555 156 0
320 -332 -436 -525 0
-591 -483 -386 -299 0
-292 547 519 251 0
560 -111 464 -230 0
-489 577 112 -319 0
-174 -213 502 256 0
-581 -239 -61 -506 0
-330 -579 417 -6 0
-512 -321 242 330 0
-84 108 -436 80 0
-171 -203 -449 117 0
-499 -144 -561 -429 0
278 -536 -331 381 0
-381 532 258 484 0
-139 -169 -537 -486 0
6 320 -193 -205 0
480 161 -69 -359 0
198 -282 292 -437 0
-261 -575 555 -208 0
270 578 105 -130 0
-284 -485 -215 173 0
151 -147 169 -487 0
-524 451 -436 484 0
-387 395 486 364 0
220 171 -285 147 0
-124 572 446 357 0
355 435 -219 -574 0
11 -201 -453 -370 0
378 -260 -515 -14 0
45 260 281 59 0
466 503 178 -485 0
379 -30 -157 182 0
-58 455 64 -322 0
18 341 325 174 0
-413 427 -63 -67 0
177 455 -46 283 0
-4 -319 281 575 0
580 -475 -91 -120 0
21 -174 11 223 0
-316 196 -136 -318 0
-324 -424 232 -193 0
-451 -271 95 502 0
-175 38 600 -395 0
296 213 -351 516 0
-216 265 224 479 0
-487 -144 479 -331 0
-108 -368 9 -163 0
367 314 -167 479 0
590 -446 -409 -485 0
411 308 42 -240 0
-276 -592 -411 30 0
-537 -204 582 143 0
-317 -145 355 -470 0
-177 309 -315 83 0
-158 -569 -384 6 0
218 484 -386 -475 0
137 410 -335 -290 0
-74 356 501 -28 0
349 514 -2 -408 0
-217 310 -446 -96 0
397 -493 -36 268 0
109 -477 85 355 0
13 -165 -327 -132 0
-412 433 -56 311 0
462 515 382 -485 0
184 -435 -545 393 0
-265 -203 -528 466 0
-472 -376 -52 379 0
-556 -274 -184 301 0
115 -366 -38 -545 0
-149 -506 442 282 0
-537 -583 -470 42 0
-104 392 -525 -81 0
189 264 82 444 0
-527 -553 250 -51 0
191 284 514 -47 0
417 -213 -20 425 0
-326 -100 -227 -231 0
-472 431 -337 -555 0
355 -456 156 -474 0
400 262 -413 -34 0
-354 -86 -213 543 0
31 160 -599 171 0
-291 570 -503 241 0
-127 -100 -406 224 0
411 -564 419 -361 0
372 -109 326 -515 0
476 -294 -461 161 0
-343 476 177 -101 0
30 230 142 516 0
333 256 171 -583 0
399 -566 -524 198 0
-180 -484 -205 331 0
471 251 455 -248 0
340 -164 251 474 0
-417 -533 -482 395 0
-124 547 -25 -450 0
41 -373 410 -524 0
-269 594 -115 -174 0
-495 216 -271 100 0
251 -267 -351 -303 0
282 -37 144 152 0
299 -315 -163 -582 0
-132 -151 300 394 0
-152 599 13 266 0
489 175 353 -160 0
-497 174 -538 494 0
-351 -231 317 212 0
202 366 -511 471 0
537 -234 -208 -373 0
69 278 -567 548 0
-458 581 -536 254 0
-251 234 468 -182 0
-195 -66 -136 536 0
489 -476 101 -550 0
-490 -120 453 86 0
-308 583 10 -596 0
200 468 -1 -258 0
520 -495 527 -291 0
282 -575 516 -317 0
-7 -327 522 482 0
97 -454 -351 -552 0
315 -514 313 328 0
-216 585 159 332 0
161 334 529 -486 0
-270 -484 -311 380 0
-461 -316 436 -577 0
419 -363 144 -468 0
-263 302 -383 25 0
205 -221 -516 -451 0
492 482 -48 -400 0
385 -61 -104 58 0
-114 484 -138 -76 0
155 -307 -588 205 0
267 -571 544 299 0
-322 -370 -457 -220 0
-266 -262 -24 -144 0
-50 542 62 525 0
335 552 504 290 0
572 116 -545 163 0
-196 75 442 -284 0
-339 75 187 590 0
-443 22 -412 -589 0
331 438 155 266 0
-206 589 -364 -591 0
27 547 -41 -131 0
-236 214 -207 311 0
-364 28 -141 451 0
-214 -390 51 458 0
128 96 -180 519 0
-124 -501 -367 325 0
490 -262 -521 -115 0
103 -364 370 -318 0
87 -400 483 -17 0
-145 255 -182 -579 0
-40 -63 -215 -301 0
532 -156 -186 -374 0
314 -414 -383 -272 0
-482 -36 148 418 0
162 -103 16 -358 0
-488 476 426 -550 0
-488 481 264 132 0
-99 -490 -505 585 0
-231 85 -98 -414 0
309 337 -474 533 0
336 433 -384 149 0
-395 50 203 -187 0
-407 331 -12 586 0
-592 -416 -463 220 0
-527 346 191 -262 0
-99 -351 532 270 0
130 -97 233 -469 0
356 315 464 447 0
-187 408 524 -200 0
363 539 156 -577 0
-236 544 171 384 0
232 -156 554 435 0
304 -400 -535 432 0
1 -77 258 570 0
-69 61 421 144 0
-249 -401 164 -430 0
283 144 412 -127 0
146 283 336 12 0
483 238 449 -306 0
350 -279 42 -391 0
173 -499 299 231 0
-372 248 507 -443 0
-283 258 521 -337 0
-104 498 249 -600 0
500 575 580 -385 0
-111 101 -590 98 0
432 -404 -41 356 0
-39 -409 443 -27 0
300 -423 30 -468 0
-255 284 457 49 0
165 215 572 561 0
-177 512 92 342 0
325 -314 -104 -93 0
-392 208 272 498 0
-173 -331 17 115 0
-304 574 -552 -183 0
415 -270 150 -349 0
301 -584 -85 332 0
281 27 -507 -230 0
-222 -149 13 304 0
-425 -570 565 -582 0
590 -397 -268 373 0
-241 328 -554 366 0
-253 552 593 132 0
549 322 108 234 0
230 -477 -276 589 0
-67 176 23 -574 0
152 -66 -363 67 0
29 -503 -442 137 0
312 339 -239 584 0
323 7 -55 -367 0
424 166 200 255 0
-31 507 123 340 0
-397 -418 -391 -486 0
-441 -259 -512 93 0
84 -348 463 97 0
-61 383 -98 -173 0
-314 -29 -582 577 0
511 -187 549 -224 0
384 588 -182 -452 0
456 32 -40 551 0
299 -111 -358 -185 0
159 346 466 562 0
-68 347 -253 375 0
43 367 61 492 0
102 533 94 329 0
-560 206 -290 329 0
-414 -446 -387 -85 0
399 314 510 -295 0
-92 -315 -585 -556 0
311 -395 193 361 0
521 -537 -183 -380 0
191 -227 328 75 0
47 -391 -211 120 0
-339 182 -400 -234 0
253 265 -433 585 0
280 -420 11 -426 0
-500 260 -11 405 0
73 -118 -119 -163 0
-263 408 -292 550 0
405 -207 89 -569 0
-491 -112 -115 235 0
-70 -248 447 -380 0
-516 -194 -216 326 0
-257 180 -359 -474 0
-299 -518 66 -231 0
-452 -72 252 -542 0
115 67 -420 531 0
380 -40 -147 -107 0
397 -581 123 -230 0
488 -586 396 -290 0
-503 257 -354 466 0
230 -148 -294 -179 0
-22 -443 308 148 0
412 -129 -362 214 0
-455 398 -475 373 0
-252 223 196 583 0
475 -562 -419 -384 0
-464 -308 423 53 0
-530 -443 185 -454 0
577 -160 -412 -589 0
134 499 324 544 0
-88 -22 9 -55 0
-155 219 315 68 0
-487 347 -180 297 0
168 -426 122 546 0
288 -256 -117 151 0
485 389 489 -175 0
-452 -599 -586 187 0
-353 -348 -88 -379 0
-154 114 202 -329 0
-507 -17 428 174 0
-25 -502 -327 -171 0
444 346 -42 -280 0
565 -33 -134 11 0
390 -398 37 277 0
435 417 351 -136 0
274 86 461 87 0
-24 -132 -110 249 0
90 -78 10 -14 0
597 -472 -339 109 0
-84 191 -94 4 0
-397 -329 543 198 0
-191 481 -295 63 0
270 148 556 -590 0
-192 330 -234 -167 0
293 224 437 257 0
-258 -289 166 -67 0
441 82 -457 13 0
371 -68 -583 269 0
-380 512 -308 501 0
44 -362 420 477 0
-413 475 -476 464 0
-143 -325 391 153 0
-177 -155 -189 -223 0
-23 510 402 -163 0
499 -512 444 -446 0
109 -69 332 -489 0
222 427 -503 -14 0
-440 125 133 543 0
-379 -579 -485 65 0
240 321 -488 -288 0
131 330 587 -235 0
577 -482 20 321 0
84 542 503 -474 0
461 -399 198 -283 0
229 -4 -336 -365 0
-328 497 -322 550 0
124 303 -63 -200 0
-12 -306 268 210 0
-81 -378 -477 -152 0
-322 111 -281 -467 0
-132 -331 -18 -127 0
385 -564 -27 445 0
36 -290 332 580 0
-136 -509 -66 70 0
-95 -369 -366 -347 0
64 538 -427 -406 0
-163 119 268 -233 0
231 491 44 -225 0
-328 331 -397 406 0
-425 -564 -70 -42 0
358 83 -596 -377 0
-8 -289 273 570 0
263 -343 201 -335 0
-457 -525 416 210 0
211 205 584 306 0
370 475 -56 236 0
318 -13 222 -186 0
336 -469 401 170 0
255 80 110 1 0
1 311 -456 -391 0
-196 434 -382 -78 0
-123 310 146 270 0
-124 -32 -488 179 0
-594 571 -280 277 0
-221 -67 408 -387 0
14 591 46 65 0
208 -274 25 279 0
46 -577 -446 573 0
49 -294 -373 -91 0
-381 565 -554 150 0
-382 479 356 300 0
418 369 -443 -89 0
478 -462 553 169 0
149 350 554 164 0
406 84 430 115 0
261 564 -169 -233 0
383 -562 405 536 0
109 232 -465 -160 0
517 111 -508 148 0
311 -215 -555 -99 0
-213 191 -74 -69 0
-413 -11 -308 352 0
-490 -43 -504 -33 0
393 552 -101 433 0
503 28 -390 -40 0
-95 85 -252 97 0
36 331 -318 -566 0
-11 132 -29 519 0
398 549 -50 260 0
301 -167 41 298 0
-79 -204 494 498 0
-181 -386 45 310 0
-235 -456 119 104 0
25 -449 509 376 0
-378 -557 109 -429 0
-67 90 -270 367 0
-141 -124 -25 166 0
-560 383 571 270 0
-119 -574 41 -238 0
-381 62 523 -13 0
141 -328 -250 -492 0
102 177 398 -567 0
-131 523 -149 -70 0
-424 371 -231 -269 0
-405 29 198 383 0
131 491 -522 417 0
295 -510 77 444 0
-150 -41 379 285 0
311 -549 -335 316 0
-574 588 141 481 0
65 258 -275 278 0
-332 -246 580 196 0
422 -286 271 435 0
303 -195 -371 556 0
121 299 -253 211 0
-509 -384 252 402 0
-150 -261 74 -259 0
-69 194 261 -507 0
-582 -431 204 273 0
-488 -448 -397 321 0
-56 43 -72 -285 0
-434 -210 41 581 0
-292 441 247 237 0
363 -243 -156 24 0
393 -209 555 18 0
-277 -498 -128 98 0
-178 226 -287 110 0
-396 -457 219 -238 0
394 -390 24 -555 0
-537 351 330 22 0
-382 -148 -80 -387 0
-281 255 298 237 0
577 -250 67 -464 0
21 -503 -447 -457 0
-376 267 491 162 0
-201 -38 391 -374 0
567 -52 -257 -82 0
-447 -286 -191 235 0
54 587 181 -296 0
-201 79 69 104 0
567 -378 184 -157 0
176 279 -526 -22 0
481 160 136 -248 0
252 -466 180 -113 0
-387 140 1 -295 0
555 414 -538 478 0
-415 258 -537 -418 0
76 -377 -306 -119 0
-323 499 204 -17 0
-144 310 406 -251 0
409 -478 -477 -381 0
-150 -104 -303 384 0
444 80 -302 364 0
-491 70 -361 340 0
-150 -576 277 -62 0
414 -343 -472 356 0
127 -449 500 444 0
580 -519 69 -158 0
-274 -148 -146 -202 0
-311 -13 137 200 0
438 -561 582 -262 0
-39 272 -495 68 0
117 82 471 351 0
265 591 -572 562 0
540 160 -533 286 0
445 -495 279 337 0
53 308 264 -110 0
255 476 -157 -101 0
-581 340 307 84 0
322 -59 -447 -416 0
-380 122 316 -242 0
-220 416 -441 -241 0
-335 386 -85 104 0
-505 -95 -156 53 0
-376 366 -586 -90 0
597 -85 -41 -1 0
503 111 274 -299 0
67 474 -267 162 0
291 33 403 -347 0
-522 314 301 411 0
-335 -216 -247 473 0
-121 152 -111 -460 0
-328 -594 245 494 0
566 -310 -215 -485 0
-51 -33 259 -399 0
332 461 137 335 0
581 -189 -8 169 0
152 -44 -144 -246 0
185 428 40 -10 0
-3 -108 495 514 0
518 281 544 401 0
-446 41 -466 -561 0
19 -418 -65 486 0
-586 -237 323 -229 0
-235 594 -261 405 0
-461 245 407 -3 0
560 427 17 514 0
53 509 595 219 0
399 -575 337 -182 0
-252 492 -22 102 0
-264 -426 -166 437 0
-317 -556 -562 71 0
-246 -68 -277 184 0
-548 477 524 -126 0
95 362 -181 -398 0
-89 65 167 -150 0
360 -31 349 399 0
413 -218 172 195 0
-233 507 -571 -469 0
-464 193 4 585 0
-426 8 323 475 0
120 140 485 -507 0
34 -325 -252 -320 0
308 -141 265 389 0
-544 -373 -77 511 0
336 190 96 -141 0
98 -271 -342 326 0
238 51 284 319 0
563 592 -560 -305 0
42 -320 -431 -96 0
-5 -110 489 -44 0
-575 254 84 343 0
-18 482 224 130 0
418 6 536 -280 0
244 -61 441 -217 0
-140 -415 422 -593 0
431 -262 -510 -2 0
-132 591 -189 -595 0
-256 -48 74 405 0
-216 -114 -15 424 0
-127 378 -333 421 0
-150 212 399 -362 0
-501 -281 -448 51 0
-62 -470 -537 -297 0
182 437 15 -485 0
230 461 -206 -283 0
449 -137 18 241 0
149 113 -275 380 0
318 414 -21 -65 0
251 570 589 -543 0
21 -336 -568 -430 0
314 436 258 279 0
-579 578 366 -99 0
345 -366 -483 247 0
-79 106 -579 -141 0
75 -106 -562 -452 0
-38 -263 12 -419 0
215 -96 -349 243 0
247 46 488 -284 0
-502 222 -422 339 0
1 438 -358 366 0
-586 -22 282 198 0
-201 -215 -203 136 0
33 121 -210 376 0
-158 -65 -163 -486 0
-431 -112 -87 -162 0
171 273 533 569 0
600 338 464 -162 0
-460 -436 -177 456 0
-21 201 416 303 0
119 130 56 236 0
405 595 -139 -55 0
-52 521 -557 76 0
-266 -268 -341 563 0
211 144 -226 92 0
-560 -83 330 -472 0
-12 -28 25 32 0
84 -85 195 493 0
381 -59 27 154 0
-517 297 -300 268 0
553 489 -295 503 0
-296 -514 -44 -322 0
-51 3 -268 252 0
-282 -543 -154 415 0
524 -234 330 379 0
385 -43 -566 -41 0
572 472 364 18 0
-539 190 129 67 0
259 542 -128 570 0
182 -561 -486 511 0
-193 -542 -66 410 0
303 175 -535 -586 0
-22 249 430 -134 0
318 258 -85 474 0
400 161 -364 -383 0
235 -378 349 557 0
-24 87 482 387 0
544 -518 24 232 0
-183 283 -340 138 0
-39 297 -59 299 0
364 199 -539 264 0
145 -105 -93 97 0
-127 -558 50 -204 0
-138 -415 -331 -232 0
86 -518 509 336 0
566 -538 -9 11 0
110 343 425 -115 0
-387 -342 484 -510 0
-426 4 -219 -402 0
319 73 -127 -539 0
-237 -407 -543 489 0
200 175 -162 -221 0
-344 346 429 79 0
-302 134 533 549 0
-346 244 505 405 0
99 -120 -132 -437 0
-57 533 -209 370 0
-28 396 -158 467 0
-224 -261 349 -365 0
112 498 -497 -435 0
-538 -271 298 42 0
-459 199 351 306 0
-542 140 418 -48 0
105 -380 -463 19 0
-67 -297 293 588 0
597 170 413 587 0
-385 304 -566 468 0
-594 394 -583 255 0
318 -584 200 180 0
-229 302 145 -441 0
-24 -572 485 159 0
-32 453 179 222 0
226 334 371 250 0
18 292 -4 -353 0
580 445 -350 31 0
368 -558 151 445 0
-353 -417 -75 222 0
150 195 542 -322 0
-197 274 409 555 0
-279 -42 -31 169 0
445 -401 399 -65 0
207 -77 84 198 0
-50 68 -385 541 0
-75 -330 56 -465 0
-597 -454 422 -148 0
-508 -452 454 289 0
-413 422 -134 141 0
486 394 -49 165 0
-24 407 -537 -547 0
92 -136 -322 367 0
-112 -479 558 82 0
-105 -81 -168 1 0
326 136 -479 -508 0
-459 77 559 -304 0
593 -331 -49 145 0
-442 -283 -292 -55 0
482 548 -111 146 0
192 77 15 166 0
187 105 -199 268 0
504 -449 240 -437 0
118 -528 -182 -557 0
461 -24 505 558 0
465 -490 63 413 0
-151 -16 374 -3 0
-230 -358 336 -164 0
344 -553 -459 -108 0
-179 -75 -585 143 0
-41 571 548 275 0
17 163 130 39 0
236 -556 -444 257 0
346 -525 -567 68 0
-469 -37 452 -94 0
400 490 -201 553 0
282 390 -80 66 0
505 394 -555 -154 0
158 -133 328 529 0
-545 -326 537 -1 0
54 -276 31 -370 0
468 -583 40 -32 0
-351 384 -275 -258 0
144 362 -302 191 0
590 -276 401 228 0
-106 349 415 -169 0
-346 495 -183 352 0
227 228 -352 543 0
-517 -109 574 401 0
396 573 333 -17 0
-268 230 8 199 0
591 -77 -116 493 0
342 -596 -242 -276 0
-91 334 -301 -465 0
-178 375 220 -430 0
-437 459 325 -47 0
112 -291 -90 37 0
-125 537 -485 -575 0
279 370 133 -241 0
167 141 -339 -571 0
333 -598 -519 -426 0
172 142 505 -346 0
348 433 -373 325 0
312 -122 85 -439 0
-41 -44 160 -315 0
243 -135 -119 -334 0
35 -535 -209 -436 0
533 538 -393 -396 0
228 -434 -460 452 0
133 -376 528 -172 0
224 -178 -557 -109 0
-147 8 313 95 0
-426 269 -502 164 0
483 -414 -532 -90 0
476 -329 -267 -372 0
585 34 334 146 0
465 -392 568 -247 0
-451 124 -481 180 0
223 579 -597 -191 0
591 581 220 422 0
600 -78 311 -242 0
-373 251 -592 -554 0
-501 -475 -505 -225 0
341 268 260 592 0
-185 458 -597 -450 0
340 253 -480 540 0
335 142 -594 -572 0
101 138 -374 -407 0
-39 46 272 -568 0
-516 -519 583 449 0
-382 527 366 190 0
42 -207 -18 -285 0
-587 -588 329 113 0
585 -96 24 153 0
-357 -25 95 311 0
-59 -202 -6 591 0
-96 -118 -149 -408 0
121 -472 -420 478 0
-92 -119 -116 -392 0
33 458 140 352 0
203 -220 -38 301 0
-184 467 -309 -534 0
292 -24 -572 -405 0
-335 -138 154 -294 0
376 359 -390 68 0
-583 -354 -132 598 0
-122 -146 -283 -196 0
-315 -134 218 -28 0
-145 494 -56 433 0
-285 62 -171 -63 0
-23 -423 234 134 0
351 328 268 -163 0
-293 34 256 -61 0
-509 578 463 -378 0
357 381 -292 436 0
-141 -258 -473 -445 0
-527 126 40 213 0
103 -461 -409 283 0
558 14 -530 -100 0
-32 -111 -351 -63 0
-253 56 474 -235 0
-544 -283 -504 -308 0
-18 579 446 -187 0
-440 260 -509 31 0
206 413 161 -451 0
-153 -81 -362 600 0
-20 -33 -59 -273 0
-26 -70 -120 52 0
-39 21 269 600 0
-577 277 588 -4 0
-177 44 262 514 0
509 405 -542 505 0
124 -425 392 570 0
153 -222 497 -294 0
-179 331 448 188 0
297 -597 -583 117 0
-271 -170 442 143 0
-554 176 109 92 0
-266 98 559 86 0
517 -599 -460 -151 0
-551 516 -297 521 0
-409 267 -312 548 0
365 -535 526 -239 0
12 -553 -177 -64 0
-485 -96 185 -194 0
87 162 524 512 0
-434 574 517 155 0
489 -52 -274 45 0
-91 -595 434 116 0
182 -500 -291 -567 0
-472 -595 408 -187 0
-290 -386 393 -560 0
-464 -524 320 -156 0
146 164 -365 594 0
129 1 -515 -588 0
-514 -234 -43 447 0
-540 456 -590 -70 0
220 116 255 -367 0
-210 418 111 -239 0
255 -45 -261 329 0
23 -170 -369 286 0
440 -326 33 -198 0
65 -482 -496 67 0
560 -43 555 -3 0
82 454 278 424 0
190 404 386 272 0
-255 596 -406 -563 0
93 336 -349 -268 0
139 -185 60 490 0
-46 -360 117 -73 0
-551 -569 405 213 0
-103 528 -594 -267 0
-26 587 -309 -140 0
386 -385 -281 -571 0
447 269 -166 15 0
502 454 349 -551 0
327 -227 -197 519 0
379 265 -415 -391 0
297 56 -112 407 0
-10 -436 -165 192 0
-463 -439 -490 -486 0
-29 107 -81 182 0
516 258 -547 530 0
550 16 -111 -486 0
-573 131 201 -82 0
14 -280 -457 -139 0
436 -78 151 -114 0
-491 351 -234 441 0
50 473 -568 -359 0
-527 180 318 131 0
-260 371 -275 49 0
293 479 -347 -150 0
199 158 459 293 0
87 -462 -449 408 0
-171 502 174 32 0
75 -487 363 13 0
-397 253 -43 262 0
236 -333 559 -516 0
236 313 13 37 0
-528 -71 406 452 0
-354 177 -286 -261 0
55 545 -216 548 0
462 566 110 16 0
329 247 127 -151 0
-552 396 582 -594 0
63 -314 -323 -493 0
-461 141 260 386 0
-554 391 259 180 0
-461 167 -534 -242 0
563 -512 31 -402 0
177 530 -528 -51 0
-46 120 -16 190 0
-396 473 445 389 0
-572 -493 -396 -125 0
96 -296 -64 -241 0
-88 523 49 495 0
-142 200 -323 317 0
101 36 -4 204 0
187 4 379 -286 0
-77 340 21 -48 0
95 -76 -14 -403 0
231 -289 2 458 0
276 -481 43 -536 0
430 -562 208 302 0
415 164 398 471 0
533 580 122 484 0
75 -373 -32 380 0
584 -466 -387 -24 0
442 368 -466 -535 0
-81 -567 -6 -586 0
-344 -523 322 121 0
142 500 -304 395 0
565 149 288 -95 0
-182 167 -145 489 0
-271 376 273 -136 0
-47 327 -446 518 0
-376 509 -1 -589 0
-351 -420 -282 55 0
482 182 516 167 0
-287 6 60 92 0
-165 269 -464 247 0
-556 383 7 494 0
-61 -94 -119 -589 0
-112 89 -323 -191 0
-452 -55 -584 -140 0
-322 16 5 -496 0
517 588 -320 576 0
582 535 480 -424 0
135 -264 286 484 0
528 145 -486 208 0
-73 -37 265 341 0
228 -188 71 480 0
369 449 -263 537 0
431 543 -62 416 0
459 199 562 225 0
516 -200 -561 311 0
-306 -416 -142 -554 0
-284 -52 -403 369 0
164 -211 -579 188 0
333 -110 -44 506 0
105 -240 103 -86 0
20 -146 -337 303 0
182 -173 -25 416 0
275 86 -182 1 0
-580 -366 61 11 0
-81 328 -114 346 0
-266 -451 348 -33 0
454 -196 -133 475 0
-375 29 -237 68 0
222 312 -13 -209 0
33 220 439 -47 0
556 -308 97 227 0
559 368 -355 -250 0
-398 -73 35 -61 0
20 408 585 -439 0
-397 450 -489 -270 0
274 -129 224 199 0
-384 -231 22 3 0
-343 -336 -9 -224 0
389 -321 -262 134 0
189 597 63 -192 0
-227 316 -339 -98 0
-432 48 365 251 0
-523 260 -249 -15 0
226 -140 7 289 0
-343 577 570 -557 0
-434 320 -172 405 0
-184 9 -145 -469 0
475 -26 130 2 0
-232 564 -7 186 0
176 70 362 538 0
-375 -580 -97 445 0
341 -564 84 -321 0
-97 -391 570 -530 0
-243 491 548 -222 0
-596 492 -177 -522 0
99 -527 -142 -173 0
219 302 -550 131 0
-160 -61 -259 -91 0
-135 538 -113 68 0
-201 11 130 -14 0
153 -225 135 -134 0
-106 250 -382 -199 0
-344 -49 417 -260 0
-237 451 -468 471 0
136 -73 24 166 0
76 -481 306 388 0
-544 224 123 30 0
-69 -397 402 167 0
-430 -499 15 514 0
-428 403 472 -42 0
-525 -404 371 -62 0
38 452 442 -401 0
-231 582 -427 -353 0
-133 173 -395 138 0
262 222 421 141 0
329 273 155 104 0
-547 -505 -101 418 0
-87 585 390 270 0
289 -472 -192 -375 0
-208 36 247 80 0
-416 -29 383 274 0
578 -276 512 339 0
275 -344 205 370 0
-278 403 -396 515 0
-130 -81 182 -352 0
341 -314 -521 -90 0
-381 -590 -391 407 0
-14 465 283 -140 0
-186 395 -126 293 0
201 -254 -162 -426 0
-58 464 -581 423 0
-19 31 -547 -125 0
-124 82 378 -563 0
-215 372 287 -181 0
-511 50 116 510 0
26 542 -421 -350 0
-464 -136 -592 -441 0
115 286 -64 -48 0
450 -550 65 26 0
-47 38 26 -156 0
-191 -328 -475 200 0
127 223 -408 -542 0
-36 -204 125 203 0
401 181 -28 -191 0
131 -383 -361 219 0
454 -233 -195 535 0
-228 -363 231 133 0
481 -407 94 -51 0
510 -124 -518 -163 0
-128 160 406 103 0
572 -574 188 92 0
-269 -547 265 -413 0
215 222 157 146 0
300 260 158 -355 0
-189 -183 363 415 0
346 -217 381 51 0
491 -251 69 -118 0
108 -242 7 -498 0
-125 576 -332 -153 0
411 -59 521 -294 0
375 396 -65 -322 0
-583 -75 179 -69 0
-580 351 338 439 0
385 -217 -329 -462 0
-1 141 19 -260 0
-509 -99 -140 -92 0
441 -414 -474 545 0
-486 221 -76 169 0
190 -136 449 399 0
-544 -548 487 -558 0
586 317 -208 -119 0
-32 -525 -593 -343 0
-71 -361 25 358 0
468 -291 -492 8 0
406 -314 -317 558 0
461 -317 -92 430 0
-35 -264 -339 -34 0
204 39 396 -279 0
113 -580 -367 -141 0
-380 -478 9 -184 0
212 437 307 241 0
-574 -584 344 -403 0
-339 -269 -300 227 0
125 -406 584 251 0
-283 593 462 -292 0
-539 575 176 -150 0
489 224 590 546 0
103 256 162 -107 0
63 -178 -118 491 0
-357 -198 294 423 0
-129 -39 -251 -11 0
-66 -152 229 581 0
110 -140 118 209 0
542 402 195 339 0
569 441 -81 -588 0
-306 -194 -266 336 0
-564 -380 50 -210 0
-139 -35 -255 -200 0
111 20 -309 238 0
406 554 29 -34 0
145 583 -288 391 0
-92 -499 449 -293 0
327 60 -159 -234 0
-166 -573 288 433 0
164 -204 206 -137 0
17 -138 -339 -411 0
-23 -225 203 -260 0
-439 -468 374 11 0
-356 323 -256 -59 0
178 237 -596 -570 0
278 -135 48 131 0
17 94 -466 -167 0
383 -60 450 -424 0
105 -488 508 329 0
-188 271 52 396 0
158 481 -152 -348 0
-42 599 352 395 0
151 -254 498 -256 0
-191 -103 134 87 0
-43 242 355 567 0
-76 -466 51 -497 0
155 -361 -107 258 0
-113 506 105 177 0
-256 -226 571 -466 0
116 385 -181 386 0
392 197 -200 -2 0
310 454 19 313 0
-339 -13 278 476 0
387 520 -358 74 0
-509 264 -187 407 0
-325 425 -239 275 0
-164 -368 -581 158 0
146 138 -29 -378 0
-74 331 -421 224 0
-596 412 239 447 0
-177 -304 185 44 0
-28 565 -348 100 0
42 45 280 -588 0
86 -182 -156 97 0
-524 -116 -382 -552 0
412 -306 -9 107 0
60 399 317 -313 0
398 -182 584 -515 0
322 -534 336 398 0
-122 -446 133 223 0
-447 -149 184 -77 0
168 -260 545 223 0
582 -115 93 -483 0
285 590 -540 99 0
-21 -59 225 -443 0
3 64 6 -357 0
-406 -194 99 -4 0
543 241 -564 -2 0
-176 579 -64 62 0
447 250 -233 182 0
-395 209 220 496 0
-556 -413 182 408 0
-112 1 -77 195 0
157 -102 554 -521 0
65 542 489 -334 0
494 -505 395 -98 0
596 172 7 -552 0
77 -131 479 456 0
361 430 -594 547 0
-183 18 155 401 0
-175 -363 -589 97 0
-580 -167 -352 334 0
456 -306 -140 -594 0
422 434 -312 -65 0
4 -567 469 315 0
-585 292 416 283 0
-310 116 421 474 0
212 -409 -596 550 0
-547 29 -272 297 0
-404 11 -335 -176 0
-470 41 -407 410 0
-184 -278 -548 259 0
553 587 -569 -195 0
-554 565 243 486 0
426 -243 -15 -153 0
1 218 -48 354 0
-365 -209 -18 367 0
-449 -555 302 443 0
-20 122 544 -484 0
-209 -438 -382 126 0
-259 135 45 403 0
411 -384 169 -309 0
-332 353 447 -490 0
-186 128 9 -340 0
-31 -265 511 315 0
-334 -382 229 -448 0
231 321 -7 501 0
-224 -105 -171 -58 0
94 70 484 -243 0
161 436 278 549 0
-329 568 -333 176 0
-144 321 -104 416 0
460 69 57 -345 0
-95 -265 459 466 0
366 145 305 -449 0
-473 122 365 -595 0
-297 209 -38 -342 0
543 -223 -432 86 0
534 187 438 39 0
-571 -70 -362 179 0
-446 -189 324 -65 0
218 336 -232 495 0
-110 -365 -436 -490 0
491 -454 388 167 0
230 215 406 140 0
441 269 350 54 0
-115 -50 -546 568 0
349 -168 98 88 0
175 302 400 284 0
-469 597 -380 449 0
503 -337 585 -357 0
-53 184 147 74 0
76 141 307 -542 0
84 474 15 -337 0
-337 102 -273 212 0
536 108 -85 187 0
445 550 117 84 0
-82 282 345 591 0
-587 -171 -108 456 0
-436 434 -600 213 0
321 -517 552 22 0
-327 200 -130 -405 0
599 82 11 255 0
-315 138 -323 -358 0
544 336 -548 -104 0
-139 -307 -218 473 0
544 -509 -211 -389 0
-358 -522 411 -582 0
8 342 558 -330 0
-376 -299 -462 -253 0
-599 500 -582 -191 0
253 403 -44 -138 0
29 163 -558 -432 0
-256 303 -182 534 0
423 79 36 -108 0
-210 -343 549 307 0
-39 -194 -574 -560 0
-499 430 214 -433 0
266 278 465 119 0
23 -590 -422 589 0
4 584 178 518 0
277 -328 360 -115 0
-465 140 -503 127 0
567 574 123 109 0
36 208 313 214 0
211 -562 482 454 0
-220 415 -291 487 0
13 116 -358 -198 0
-559 131 406 137 0
70 175 -239 -88 0
-8 275 -287 68 0
-279 -103 579 221 0
-78 61 -495 317 0
-558 477 29 572 0
-589 -417 -210 -188 0
-148 190 297 -15 0
430 -103 -111 -547 0
-442 -102 391 -221 0
-174 -58 156 -36 0
-425 -139 72 -585 0
-348 -477 -488 -321 0
-577 -13 -27 473 0
-463 176 -165 -96 0
-522 -484 -78 400 0
324 -287 -418 115 0
-71 -486 -7 466 0
-231 -309 301 -135 0
351 -186 220 277 0
18 -598 279 313 0
-385 24 -214 -188 0
134 482 -419 81 0
138 -277 -354 -368 0
109 589 114 -328 0
441 554 415 -293 0
-570 -439 527 432 0
-513 -539 276 -320 0
571 -91 579 113 0
-88 448 308 45 0
207 403 -131 -203 0
448 -277 460 41 0
-327 281 -443 192 0
-205 -504 152 15 0
3 -63 22 19 0
413 -465 246 114 0
-582 93 -125 259 0
95 -394 -582 156 0
596 545 -592 471 0
345 308 557 -85 0
-265 398 251 42 0
-528 284 225 -256 0
457 -85 99 536 0
-379 266 338 -514 0
-19 -194 267 -13 0
-421 31 458 -330 0
-280 -415 -443 -453 0
17 -143 -553 -94 0
458 -296 -2 -153 0
72 -509 269 -333 0
198 -422 320 -164 0
302 90 -164 97 0
110 563 119 429 0
355 579 -19 -294 0
-476 -178 -225 -57 0
-249 -535 147 470 0
-206 -131 -582 438 0
546 -384 -12 510 0
265 -320 -391 -48 0
-451 430 -225 -308 0
243 8 375 512 0
-317 504 -153 -266 0
420 548 174 -168 0
470 188 404 464 0
397 -360 -410 157 0
453 -419 559 -523 0
83 -164 -593 62 0
112 523 311 -513 0
-321 279 215 315 0
-561 157 -114 -155 0
365 -168 366 263 0
-284 290 -91 -127 0
-564 -83 544 -151 0
231 346 -295 -513 0
-530 -284 -430 550 0
-356 -101 104 -45 0
286 -85 -191 -254 0
-541 -435 5 246 0
-395 55 -60 208 0
564 -51 -83 -92 0
487 -120 -247 110 0
569 425 47 -108 0
-364 53 520 265 0
537 -337 374 -10 0
-346 543 170 123 0
-455 -536 4 483 0
-480 115 426 109 0
482 159 133 208 0
258 -493 503 -124 0
-430 -574 -109 8 0
563 376 -361 477 0
301 199 -139 219 0
401 600 39 394 0
-266 -408 484 -21 0
122 252 592 -374 0
57 -119 -417 306 0
223 203 373 48 0
161 289 217 -116 0
-300 -516 -68 -226 0
-77 -16 324 -235 0
-374 564 -398 298 0
-338 -239 -318 -564 0
283 -511 431 266 0
-435 -126 328 484 0
114 141 -560 -79 0
240 -382 -577 -510 0
47 -473 -165 -233 0
-379 -287 -433 -474 0
-472 -209 63 513 0
-493 -545 -236 -63 0
17 191 453 -304 0
-471 -186 -393 52 0
-541 413 -152 -462 0
-427 439 -257 -140 0
-490 70 212 -347 0
142 -367 129 -224 0
54 417 31 270 0
240 181 -59 -343 0
-27 -538 -149 486 0
-461 440 264 -10 0
-60 -486 -513 -475 0
-79 29 -248 540 0
-134 -467 212 -185 0
106 109 -77 476 0
-504 -110 434 169 0
-117 296 -275 -566 0
-107 436 -593 -9 0
-185 424 583 -563 0
-408 276 508 -80 0
20 -222 83 410 0
-12 -34 299 -598 0
287 386 -592 230 0
-455 -444 248 569 0
333 267 63 161 0
-333 112 225 -231 0
-554 -90 -164 -587 0
577 440 -61 129 0
176 -465 -171 -567 0
383 24 -464 -1 0
-508 373 423 23 0
-579 -176 -48 170 0
-307 244 -34 -287 0
-161 -357 -198 -254 0
-42 158 -384 340 0
232 346 -291 337 0
-595 517 568 574 0
252 -198 -167 -302 0
8 551 28 -356 0
-130 276 -277 -93 0
-403 -321 -138 -58 0
-493 -471 -317 -381 0
275 -96 580 -209 0
-136 -186 -406 -458 0
-411 -132 434 281 0
409 -258 -393 106 0
-124 460 235 28 0
-276 -323 -141 -277 0
-236 -340 364 -11 0
596 -108 307 -244 0
473 -144 268 -478 0
135 158 -96 514 0
330 553 -113 185 0
505 -43 -442 -392 0
-175 572 441 -363 0
-479 556 -297 444 0
368 540 544 -197 0
448 -490 139 -415 0
-129 -599 173 372 0
-383 -83 -600 -402 0
109 547 188 -362 0
-308 458 -177 -566 0
-14 -93 -174 167 0
-12 14 -428 -404 0
1 -269 -351 -54 0
292 -41 20 238 0
252 -380 -206 -552 0
89 -228 -392 6 0
-473 -498 39 329 0
-57 -486 447 133 0
-11 -16 -587 -334 0
-436 151 -229 -114 0
13 -266 290 96 0
-399 358 -283 -295 0
398 536 371 -489 0
214 -258 -300 -185 0
-72 485 -336 -349 0
-507 -579 194 -177 0
225 -456 -316 -274 0
354 -439 -344 202 0
12 -170 -368 301 0
-141 429 -573 582 0
273 -65 13 4 0
-321 494 -275 179 0
-17 -34 596 -226 0
-501 421 97 -301 0
218 -469 53 406 0
360 -426 263 425 0
414 567 -69 -377 0
-530 -585 35 62 0
-113 12 530 316 0
-395 21 -298 -242 0
-38 -234 254 -455 0
-406 -495 451 217 0
124 -562 139 -188 0
589 -288 84 -17 0
-224 515 338 -48 0
174 -528 516 494 0
-331 23 310 -585 0
575 433 -80 -559 0
-211 -192 63 72 0
16 486 197 595 0
-581 -550 164 503 0
-209 239 -475 -93 0
316 -269 -176 415 0
549 -241 90 244 0
20 116 -290 -368 0
390 -184 -66 -349 0
544 167 279 238 0
-252 56 -151 78 0
6 396 -386 278 0
594 -54 106 389 0
-146 524 96 -337 0
-56 160 -423 306 0
-553 -33 531 68 0
425 564 -179 304 0
20 469 -151 529 0
-479 -283 91 78 0
-395 -113 176 484 0
-18 246 -123 468 0
-200 271 -288 276 0
260 -343 -535 497 0
-147 306 167 383 0
-160 -229 470 373 0
415 -61 -256 386 0
249 385 -326 -137 0
228 436 262 514 0
286 -17 249 410 0
-151 -122 361 -584 0
410 -421 -156 -203 0
475 -542 418 291 0
497 -179 139 -52 0
-421 -578 132 12 0
-583 -598 418 182 0
-159 562 -254 221 0
-570 -528 476 -508 0
309 -125 253 261 0
253 98 336 205 0
-159 130 -413 -11 0
478 -409 151 -69 0
-35 -292 -578 73 0
-508 -330 156 -557 0
336 393 305 -164 0
12 -338 155 -57 0
497 -437 439 -105 0
-583 -559 -35 -379 0
374 -252 3 -460 0
342 -492 -157 298 0
-503 264 124 -168 0
-324 -415 -100 -14 0
-509 359 64 -232 0
47 -151 -342 -598 0
-216 -471 -42 195 0
282 460 -294 -564 0
-548 -426 132 -231 0
482 424 330 79 0
571 366 -92 495 0
-356 81 -275 361 0
-572 363 -522 2 0
-98 329 -463 -267 0
120 -408 -49 504 0
-13 -319 -327 320 0
560 -154 -183 -84 0
-165 41 245 527 0
286 -22 -456 547 0
347 93 -392 -290 0
-243 351 428 -136 0
270 22 516 -520 0
518 -572 495 -44 0
-95 -554 289 -228 0
-400 -388 -103 -99 0
167 -409 247 -191 0
-466 163 -151 -19 0
-489 280 373 -286 0
-545 -141 -202 -82 0
-587 348 -250 -591 0
-418 136 -185 -255 0
-238 14 -142 -394 0
569 460 -7 222 0
-54 -403 243 -43 0
-133 -544 90 -440 0
-222 45 122 -169 0
-139 -24 269 348 0
583 479 376 237 0
-43 51 -547 441 0
505 303 330 -264 0
327 293 -571 -289 0
571 17 -575 -124 0
-217 -291 290 339 0
380 -153 127 -506 0
241 -419 -106 -431 0
304 -460 -158 -432 0
-65 -375 -517 -374 0
-452 -236 -93 -434 0
-451 -586 -64 -383 0
-335 315 453 581 0
375 219 -100 -328 0
472 127 587 82 0
-446 -308 415 595 0
200 331 -507 271 0
384 480 51 191 0
91 556 -272 -251 0
-27 -369 443 501 0
491 218 -137 -216 0
575 137 330 246 0
-472 -386 -192 265 0
164 -230 -548 -347 0
-590 97 -258 1 0
-529 -286 301 142 0
-538 -153 -10 495 0
351 -130 -399 59 0
-72 -207 565 227 0
252 -219 159 189 0
-132 -505 -461 479 0
519 35 -408 412 0
-4 -213 -572 371 0
174 -516 312 139 0
-305 55 136 -508 0
-376 -519 172 -439 0
-441 -164 15 41 0
366 -414 -269 -422 0
498 214 107 536 0
497 589 -555 285 0
519 -438 -36 323 0
-213 -147 427 447 0
-264 391 104 134 0
547 77 -107 -338 0
-5 75 187 -462 0
-198 544 312 -510 0
-408 473 517 -504 0
132 210 -462 539 0
-298 70 398 -535 0
-262 590 379 411 0
278 401 26 333 0
397 198 555 -248 0
207 -405 123 -52 0
-394 -411 136 8 0
-519 417 285 -339 0
368 -506 -361 -103 0
-8 54 396 537 0
-136 -299 -59 -366 0
-180 263 310 267 0
-6 148 -207 542 0
239 -326 482 -43 0
47 306 -275 -158 0
-341 50 554 -548 0
-71 218 276 593 0
-488 -497 590 499 0
113 215 -372 399 0
476 -210 363 387 0
15 587 330 511 0
-345 599 -562 47 0
257 277 -151 46 0
144 341 -534 288 0
158 -42 -233 -99 0
448 -472 -372 375 0
-436 274 536 -163 0
328 -533 406 -527 0
226 -173 440 32 0
287 -170 471 -431 0
-455 198 -3 394 0
89 381 -95 543 0
154 302 151 -391 0
-562 -24 -431 157 0
-122 -462 -515 -594 0
-587 -58 37 439 0
459 57 566 288 0
-73 -456 431 509 0
558 -554 -41 464 0
329 -506 60 572 0
-400 -172 415 -564 0
538 -24 -160 18 0
112 -185 -118 29 0
560 103 159 581 0
101 -524 138 -28 0
38 -122 49 466 0
-148 397 567 237 0
-448 -312 -466 -48 0
524 -424 -532 -231 0
499 453 242 104 0
103 331 338 -349 0
34 367 131 96 0
-529 -281 287 -270 0
79 319 66 316 0
-157 233 -331 -51 0
403 -547 77 39 0
551 -55 146 -238 0
-437 -525 299 -270 0
238 -434 -438 -306 0
327 -492 -224 511 0
511 375 -464 -165 0
107 -522 -403 573 0
91 340 573 378 0
-233 180 -308 93 0
-261 -551 254 598 0
308 -299 394 -483 0
587 366 -558 291 0
-118 -435 -66 -453 0
526 97 415 579 0
102 -234 308 281 0
262 -576 209 -499 0
129 549 415 296 0
30 156 435 357 0
394 -192 -120 -572 0
387 -426 424 446 0
-247 285 -179 33 0
-226 276 558 41 0
-568 227 -432 500 0
-74 -336 -154 -312 0
-169 -217 -252 -359 0
-315 -144 -386 -54 0
224 -69 582 -599 0
343 -365 -597 162 0
-270 95 306 47 0
561 -332 -3 184 0
214 -278 -296 262 0
-549 235 587 -1 0
-370 -283 388 -86 0
367 96 118 -267 0
325 -219 -66 -138 0
-250 452 -508 446 0
-383 515 -53 -62 0
-320 212 -597 -87 0
548 -423 175 -107 0
468 -100 -47 -416 0
466 -55 417 562 0
203 -251 74 -382 0
-35 55 -190 -200 0
-344 20 -335 142 0
-28 -414 -419 492 0
580 -146 20 -98 0
532 -145 -132 -139 0
-134 -189 -181 49 0
-48 -78 -117 -213 0
234 179 -373 -186 0
250 -261 -344 -422 0
410 -306 454 -439 0
198 275 -179 -56 0
465 485 249 -284 0
484 -238 365 415 0
414 -380 341 -577 0
-162 379 -253 -524 0
-485 379 -225 -256 0
453 278 -404 445 0
418 131 -591 -565 0
-398 -506 -155 -305 0
-429 -202 561 -230 0
337 -513 440 -253 0
-552 151 304 580 0
-560 -80 426 -99 0
-404 -528 -202 -473 0
134 389 61 483 0
281 550 -434 494 0
-396 282 588 -213 0
-202 305 453 407 0
169 -398 304 353 0
-472 -143 600 308 0
82 -113 -186 -424 0
420 463 -27 -422 0
-114 -34 108 -399 0
411 -253 582 -279 0
238 -279 -221 488 0
-281 547 103 -289 0
64 -73 445 506 0
94 107 411 11 0
86 26 49 -320 0
-543 576 -428 122 0
-41 253 -299 148 0
338 310 -567 -268 0
436 -63 490 580 0
-103 -211 -557 392 0
89 508 -119 209 0
17 -139 311 476 0
-91 297 95 -123 0
140 -497 77 -219 0
-302 439 -193 74 0
-512 309 -114 -389 0
156 -122 -357 291 0
224 -340 53 -421 0
-417 562 -260 353 0
320 -77 3 -143 0
478 598 -556 -283 0
290 -519 -584 227 0
349 444 -463 -357 0
-517 304 -150 -189 0
-137 -371 -415 -376 0
-44 -85 302 -282 0
432 185 267 -42 0
6 -4 -422 419 0
-103 -498 -139 550 0
-114 -125 -360 -166 0
-159 -291 -14 -549 0
-305 33 2 -280 0
119 234 -382 -105 0
322 -199 327 454 0
8 448 -297 -121 0
-42 476 -537 -247 0
-308 -105 -295 338 0
-523 -98 -269 295 0
-132 564 38 180 0
-24 395 228 353 0
233 476 -572 600 0
456 -257 246 413 0
-353 505 382 -586 0
590 -1 -430 441 0
-533 557 -440 -16 0
-247 240 -464 -280 0
-455 425 -96 229 0
60 144 -367 226 0
-165 408 -303 276 0
331 -10 -545 -289 0
218 -309 -525 -5 0
114 -339 -351 253 0
323 -470 289 599 0
-388 -16 -167 285 0
-227 148 347 -299 0
-551 -143 538 -397 0
-446 -402 -189 -93 0
-143 -135 28 -310 0
123 -368 -247 181 0
6 406 227 -130 0
-237 161 513 -47 0
155 -47 429 98 0
217 -383 -232 -502 0
-23 -189 -596 -350 0
288 -505 66 -527 0
-461 594 -147 233 0
223 140 -240 85 0
-548 -78 -292 -340 0
-14 122 303 362 0
463 -511 -439 431 0
429 -69 -129 28 0
-329 -489 561 -57 0
-136 252 71 -117 0
-396 -490 -438 -210 0
-553 -365 600 160 0
-292 -525 -377 425 0
-320 198 -23 -42 0
252 -584 -551 579 0
-213 147 266 -448 0
214 -130 491 -549 0
-509 423 351 584 0
143 43 -97 -101 0
-362 -168 439 403 0
-378 -66 148 -500 0
-255 501 375 402 0
-267 -542 -452 524 0
-592 -295 -377 -124 0
-424 -593 133 582 0
147 56 432 -130 0
237 -328 23 -452 0
-142 -75 135 -590 0
-5 -191 151 201 0
7 -294 354 -505 0
-533 -299 54 -470 0
300 -464 569 148 0
-58 582 -277 325 0
-456 -13 -405 202 0
-533 437 206 5 0
28 -51 -531 -300 0
-557 -209 210 -218 0
-522 171 -554 -416 0
9 344 260 -293 0
380 -430 287 -582 0
-379 96 578 221 0
-80 -111 340 299 0
62 554 50 222 0
-37 -293 -262 -70 0
395 522 -349 78 0
-106 -282 -528 -223 0
44 -13 -106 -413 0
-462 563 -269 37 0
106 -415 540 -573 0
-110 375 529 -399 0
-583 585 482 -395 0
-204 -164 -424 -68 0
-550 213 -384 -195 0
-336 -451 -154 -559 0
-522 168 -290 164 0
-494 -344 573 45 0
-439 562 -497 -214 0
528 -350 -210 -162 0
-574 -228 262 -325 0
328 -129 531 -380 0
558 479 -196 8 0
9 468 230 569 0
481 467 -119 -124 0
-493 517 -400 204 0
150 -75 -50 145 0
501 -222 54 358 0
481 97 -438 -124 0
445 -359 -409 413 0
-387 -537 -241 200 0
156 -166 289 -142 0
470 206 187 -131 0
14 -470 -22 -371 0
-117 343 -505 118 0
-45 -71 -407 -156 0
574 586 214 268 0
209 226 -327 296 0
-192 111 291 -585 0
518 -424 -397 291 0
-94 -507 143 -418 0
552 -342 -271 -171 0
-36 -145 -22 560 0
18 -328 -89 -25 0
118 411 -208 -59 0
431 -223 -391 206 0
54 539 241 68 0
318 545 -46 178 0
286 67 -344 557 0
236 -51 -269 226 0
404 175 -547 -26 0
440 533 69 358 0
263 -469 4 356 0
91 38 358 -562 0
444 -510 -208 459 0
128 -316 -144 433 0
-30 107 -416 -498 0
408 -129 544 -556 0
539 -367 26 90 0
-471 -412 -177 163 0
-528 -12 584 200 0
333 174 192 564 0
1 475 299 -595 0
-332 -350 489 492 0
390 304 -26 563 0
26 325 -31 75 0
112 -397 -338 495 0
361 -406 360 96 0
-316 539 439 -41 0
189 -269 277 -186 0
475 51 -239 -18 0
154 -349 14 -66 0
176 586 -24 -412 0
233 194 -418 -216 0
-43 -14 -511 -201 0
395 434 -143 -266 0
296 26 335 507 0
313 401 -377 418 0
556 -505 -214 -371 0
68 288 390 -440 0
-527 -204 275 -519 0
362 561 -440 164 0
-307 531 321 -247 0
538 -483 -5 521 0
-419 575 224 258 0
-346 549 -33 365 0
-370 -33 180 -545 0
469 202 288 177 0
479 458 233 -502 0
354 -5 -248 576 0
360 113 363 -40 0
-352 -24 -190 -576 0
476 272 239 -230 0
-81 -103 -115 146 0
171 411 -367 -190 0
390 188 -353 114 0
-568 -359 357 -300 0
-42 -83 599 238 0
353 367 321 -226 0
-486 -191 -557 -111 0
-144 -89 326 488 0
-171 -436 264 104 0
-524 453 -402 164 0
86 -442 247 -21 0
-76 -447 -506 61 0
-553 147 -129 -429 0
221 288 -235 544 0
-93 299 -156 -59 0
48 -149 -567 -180 0
-371 380 -453 388 0
-300 -25 293 -265 0
-307 255 447 382 0
161 -600 -496 -122 0
-599 118 -479 -130 0
-463 -219 166 -522 0
55 -516 -501 235 0
-407 581 -78 -330 0
28 -368 -141 579 0
-355 -83 -383 202 0
182 7 135 387 0
36 -219 -318 -355 0
-407 49 244 -279 0
471 357 -305 -71 0
518 99 46 -78 0
-74 -50 -322 103 0
-164 153 -3 101 0
178 -33 564 -202 0
125 -421 228 426 0
89 -491 252 390 0
-498 -439 -494 -189 0
-103 -52 -486 -10 0
-29 -546 329 -107 0
113 -599 -83 -272 0
-484 146 405 -353 0
-511 81 -242 450 0
514 -513 -426 -145 0
-412 -391 -452 -557 0
-101 -201 558 -538 0
144 -223 296 390 0
181 -507 435 -210 0
-469 427 -100 -306 0
233 -116 407 -545 0
-28 257 -398 321 0
495 23 -222 -387 0
-555 -226 499 234 0
591 -186 149 -117 0
229 -287 66 45 0
-593 -97 -84 -557 0
532 -198 21 90 0
411 55 492 343 0
534 259 -591 489 0
-324 -166 139 -110 0
344 428 365 -530 0
-10 444 79 505 0
321 -417 -250 97 0
376 361 -460 183 0
421 -224 500 -575 0
595 600 55 -402 0
-213 -14 -512 79 0
176 118 -399 -228 0
-248 79 482 -540 0
58 249 -488 168 0
516 231 -350 432 0
562 127 -157 494 0
-149 -330 351 109 0
189 331 572 69 0
506 432 184 -109 0
-39 125 -556 -405 0
-213 -569 -258 -326 0
249 9 482 410 0
439 -314 -372 594 0
-576 181 -111 472 0
-96 429 -411 521 0
-197 -440 -464 -30 0
-301 -12 -185 313 0
277 -97 538 -236 0
241 -445 321 316 0
-318 298 275 -173 0
32 162 -287 251 0
-450 422 -360 -94 0
345 427 -281 -9 0
-198 -553 67 -479 0
333 -96 58 521 0
-73 28 -205 326 0
-180 37 -179 248 0
-434 -178 -172 584 0
96 -67 555 -197 0
-313 -130 288 153 0
-193 -277 420 196 0
-244 264 214 -484 0
261 -39 -520 -446 0
576 -181 -393 -137 0
23 592 356 168 0
-383 -279 492 9 0
-433 -291 335 -215 0
46 265 -469 128 0
349 -281 140 564 0
-412 387 529 -445 0
17 419 -110 469 0
444 599 53 -88 0
-221 -537 267 -459 0
334 1 347 79 0
394 504 -300 -268 0
213 -377 446 590 0
-332 18 344 -419 0
352 319 -47 -139 0
575 446 -74 -483 0
457 -128 308 35 0
-247 -552 -332 503 0
527 -74 -422 256 0
-573 -54 -395 201 0
23 -82 -145 450 0
214 -2 302 516 0
471 -359 -537 -386 0
-151 -53 -199 433 0
265 413 -521 387 0
-155 -201 -228 380 0
49 -460 226 -128 0
-439 178 -424 -140 0
43 -522 -568 501 0
384 280 294 -246 0
363 195 457 471 0
-246 -488 -399 477 0
-24 -492 -432 -479 0
91 78 -325 483 0
60 34 48 -585 0
366 519 -154 248 0
-342 -433 -375 252 0
422 -441 -33 14 0
585 81 72 62 0
371 432 80 81 0
409 322 -83 -89 0
-459 284 -412 -437 0
-96 -523 419 524 0
422 410 -393 -561 0
137 378 -414 352 0
70 -283 -169 239 0
-509 433 293 18 0
-433 -179 -160 -69 0
-398 -386 -34 316 0
-93 -260 -465 -513 0
132 -3 -193 336 0
171 232 517 493 0
-417 -424 -318 -509 0
-376 -79 -518 -193 0
-429 326 548 81 0
374 -172 122 501 0
60 592 536 311 0
568 385 339 -370 0
472 354 -183 -221 0
546 586 94 561 0
-546 -67 265 395 0
320 161 -106 379 0
54 -105 178 -65 0
-90 -303 412 -91 0
-201 -56 65 -329 0
461 -452 -546 91 0
418 -370 -563 311 0
443 -244 313 334 0
189 101 145 -417 0
57 427 315 -85 0
-108 392 390 96 0
-540 136 -164 -257 0
516 -129 156 -86 0
391 583 -150 32 0
89 -4 12 354 0
361 -505 133 -136 0
32 48 475 -274 0
-196 -570 -475 -126 0
46 -340 525 24 0
17 -390 45 -295 0
14 -429 368 -308 0
-350 -43 594 24 0
518 -339 -447 402 0
-338 363 442 138 0
454 391 356 436 0
-76 -211 399 54 0
24 -91 -101 199 0
284 -458 -82 -592 0
263 534 331 -252 0
125 266 -471 -577 0
575 -246 -368 -96 0
578 -340 -227 130 0
523 -530 414 -542 0
153 171 -377 548 0
-550 -2 -114 -540 0
523 -527 352 -438 0
420 -508 -515 19 0
-492 276 -288 -589 0
-366 -206 84 -490 0
163 -516 -501 282 0
66 299 -540 -396 0
-124 -121 505 -435 0
-326 -74 -367 447 0
438 -244 9 52 0
63 -113 406 197 0
-159 -177 288 149 0
-313 -172 492 391 0
447 -51 85 -519 0
308 -567 -6 74 0
384 -540 409 -410 0
-280 -427 -17 354 0
448 -497 -274 413 0
-212 405 -307 588 0
358 -419 -456 158 0
-366 -329 -223 -571 0
328 -563 -143 -92 0
-380 408 -490 525 0
23 493 352 85 0
-517 -67 468 495 0
-307 99 -315 -170 0
555 183 533 -251 0
-451 -456 445 -359 0
371 334 311 -270 0
-443 550 483 -505 0
145 3 -597 -273 0
-247 306 -116 355 0
49 -113 127 342 0
270 -247 -74 269 0
-480 -513 -345 411 0
500 317 -98 -403 0
322 156 -244 -149 0
597 -353 498 309 0
413 -46 160 544 0
421 172 245 -219 0
-2 -308 19 477 0
99 261 505 501 0
128 570 358 -328 0
-291 -382 413 -38 0
20 -80 472 357 0
449 37 393 -472 0
-443 -183 542 -321 0
374 593 -243 -563 0
-256 -362 203 439 0
-540 -418 47 -501 0
88 219 237 -354 0
-195 49 480 -318 0
415 231 -322 492 0
-65 275 533 23 0
53 -468 -234 373 0
400 -26 526 179 0
-243 483 271 -70 0
598 107 91 -130 0
271 -171 -331 -163 0
560 582 -151 342 0
-327 -463 -271 -280 0
-325 -287 294 79 0
351 -88 219 392 0
148 60 -212 566 0
456 440 526 309 0
-83 267 -392 138 0
204 249 -332 -274 0
-555 213 399 -12 0
299 -480 -495 48 0
446 -112 557 -243 0
-495 -432 -68 -427 0
-537 -529 405 575 0
-228 -46 -232 -166 0
440 -479 -306 112 0
237 21 397 257 0
-499 16 235 306 0
-462 55 127 -566 0
-407 558 -146 -594 0
341 -253 -69 255 0
-176 -412 4 144 0
564 523 -467 376 0
-238 204 -377 559 0
-85 5 -419 -371 0
319 347 260 -387 0
167 84 -312 49 0
-194 89 586 -339 0
593 13 -226 -348 0
-505 -84 498 28 0
-587 311 -76 -133 0
402 260 554 -238 0
-459 395 573 -266 0
-476 -447 -63 10 0
466 -239 -82 -484 0
431 -463 342 -512 0
1 310 556 288 0
-450 -223 -120 -555 0
-297 167 496 53 0
594 -307 -489 424 0
590 -485 402 -315 0
350 -473 -154 525 0
-216 304 -520 -346 0
11 -520 -265 390 0
-389 -187 -418 70 0
-35 -454 -452 468 0
-584 -579 417 148 0
455 72 88 -57 0
568 -430 177 192 0
-172 295 207 -168 0
-147 -221 -236 259 0
29 387 -580 265 0
134 -196 350 449 0
-93 140 -518 352 0
-272 260 544 -570 0
110 -120 -593 533 0
-147 -543 7 -332 0
-136 374 342 31 0
458 -558 407 29 0
173 -126 256 77 0
334 574 411 425 0
553 -484 580 -538 0
79 258 -162 318 0
-486 -592 -402 318 0
-555 -571 -519 -7 0
540 -500 -320 347 0
-4 85 -501 -370 0
511 -141 -70 57 0
-328 19 101 -365 0
-175 53 236 -408 0
556 -194 207 -14 0
244 569 -222 408 0
-266 -344 -457 158 0
545 -351 -513 -103 0
110 580 -443 -509 0
-133 -359 76 586 0
362 130 -244 -233 0
276 590 203 -489 0
-549 381 331 128 0
86 -290 169 -20 0
114 -318 -188 -307 0
395 134 355 -82 0
589 482 461 -242 0
176 -265 305 196 0
474 532 -508 -169 0
416 315 229 531 0
586 49 232 -277 0
483 596 429 -52 0
-68 -430 -363 -495 0
-392 -142 -129 -375 0
237 55 -87 -275 0
-341 152 478 -248 0
-187 406 -319 68 0
-14 12 68 -535 0
338 -541 280 460 0
331 428 -426 -493 0
21 -173 -171 442 0
-242 -413 333 -11 0
39 -57 443 308 0
-309 150 463 -516 0
-54 291 181 255 0
63 -444 454 373 0
314 -237 589 410 0
-188 356 -179 -526 0
-524 -101 -227 -253 0
-214 -52 -186 -236 0
488 -260 23 -584 0
-248 -236 -356 -46 0
-136 -335 99 -30 0
-511 -56 274 54 0
-307 350 -403 313 0
90 135 329 239 0
78 -94 256 354 0
-318 261 71 -482 0
509 -125 402 443 0
285 -420 252 -18 0
-77 -550 374 -443 0
-447 -75 321 43 0
-513 -368 -431 -457 0
433 25 -518 -44 0
292 428 -99 52 0
513 -571 101 551 0
118 -396 249 569 0
361 91 -541 -362 0
37 391 -343 -410 0
537 36 -13 -491 0
-568 -115 -298 -459 0
19 478 -529 229 0
51 410 455 -533 0
-262 -355 -291 -562 0
-270 578 -37 -446 0
-575 -346 -504 -104 0
-375 412 213 311 0
450 -215 151 17 0
439 340 -220 -246 0
205 -102 388 -508 0
426 111 -381 -290 0
269 -59 -142 384 0
351 303 33 520 0
-564 -214 582 -508 0
-318 -387 100 -402 0
-539 -226 -61 -29 0
315 232 -19 504 0
-580 -423 322 -278 0
200 -368 -103 -535 0
-336 -414 -58 5 0
294 -40 382 392 0
189 369 81 -378 0
-529 -170 -520 13 0
-118 185 -223 -594 0
35 -598 -571 -391 0
-331 -565 -289 311 0
569 -153 258 -550 0
-473 -241 474 79 0
-113 -546 33 -157 0
-270 -125 -255 -588 0
95 514 582 128 0
323 -388 147 312 0
-297 -65 -47 -226 0
-107 114 576 320 0
-238 161 -323 -119 0
-40 515 370 425 0
396 465 103 -304 0
203 -108 -269 -363 0
157 469 -336 -484 0
-228 220 461 272 0
461 4 -236 253 0
296 -92 191 -415 0
-172 -437 462 -360 0
501 -407 -248 90 0
416 -341 -303 -417 0
-296 22 -63 288 0
575 388 598 -532 0
253 416 -110 -26 0
74 -456 498 228 0
-207 38 -455 -541 0
434 -54 -38 -285 0
-89 -366 -343 434 0
-311 -579 417 -351 0
-28 -217 240 -369 0
600 598 -185 -394 0
-115 -490 468 242 0
-438 159 280 -519 0
574 358 -539 386 0
491 -398 -567 465 0
248 281 -591 206 0
-451 35 -441 7 0
328 -474 -129 -122 0
-571 -193 380 270 0
459 16 -105 -304 0
-237 244 -257 136 0
-405 -408 598 155 0
338 -25 178 399 0
-114 -57 86 -335 0
-576 265 259 -527 0
570 -525 144 198 0
-53 575 -415 -490 0
269 542 -128 506 0
-423 -372 325 430 0
-544 -561 -140 144 0
-408 295 125 493 0
-30 -160 195 424 0
434 519 -194 325 0
-445 281 16 250 0
234 184 352 144 0
-412 466 -105 -180 0
-582 329 -170 -191 0
309 533 -286 255 0
556 446 -520 116 0
-228 227 48 -437 0
-512 -491 88 342 0
58 398 -171 494 0
591 -101 -156 -17 0
173 120 -423 -183 0
-150 195 -332 521 0
353 582 502 480 0
-201 -368 501 593 0
150 -261 -463 -276 0
401 -467 13 -224 0
-475 442 -107 106 0
211 -213 32 -15 0
521 150 592 171 0
229 176 114 -41 0
176 452 -236 -438 0
-189 3 484 137 0
142 -558 482 -260 0
-441 215 406 -335 0
94 -20 -19 -373 0
551 -263 -132 -440 0
-11 -463 138 133 0
3 195 -279 -146 0
210 -589 118 -446 0
-115 426 406 227 0
-572 483 -313 -10 0
-259 -66 20 -399 0
560 -295 298 -340 0
417 307 -147 -595 0
-133 -303 -99 122 0
418 587 -426 102 0
340 -382 164 251 0
-50 -333 -516 -562 0
-359 -278 59 314 0
-204 373 48 110 0
-328 519 446 -186 0
-42 227 85 -456 0
368 547 -520 8 0
70 317 -135 183 0
-303 374 186 -47 0
456 508 91 110 0
-229 19 -313 -340 0
107 90 399 1 0
585 476 40 -112 0
211 -207 -389 535 0
-279 470 444 73 0
-233 -8 -508 -288 0
-586 491 592 130 0
50 226 217 534 0
150 526 375 -575 0
-265 -241 590 479 0
-9 -5 482 243 0
305 284 -321 474 0
-284 113 -45 -463 0
-395 -352 -292 238 0
-401 32 266 256 0
-529 338 582 56 0
373 -519 322 -462 0
566 74 -388 -489 0
40 501 -216 59 0
478 477 398 -97 0
27 -3 -504 -521 0
-514 -330 290 14 0
134 -568 342 45 0
-403 -323 201 -163 0
-122 292 -462 160 0
-252 -275 494 499 0
-600 249 366 -322 0
-153 -38 -42 421 0
272 370 -578 -281 0
565 -578 256 96 0
-15 -429 333 -31 0
-154 -555 -243 28 0
-255 5 -263 -380 0
-130 -418 -218 341 0
-320 222 -238 141 0
-64 -270 421 -37 0
580 387 -146 435 0
-154 -64 -578 -455 0
39 -443 -474 -25 0
40 -58 213 -599 0
-488 -168 118 392 0
237 75 162 -592 0
-346 -230 -26 492 0
-573 -129 149 -524 0
-56 324 293 -574 0
-171 -561 149 64 0
27 82 172 -432 0
-430 375 -516 -594 0
582 427 -20 437 0
-264 -351 -182 -371 0
-507 -561 550 268 0
-427 326 491 -480 0
527 -513 465 157 0
140 -525 151 -411 0
-123 449 -28 2 0
435 -35 343 397 0
77 412 388 -313 0
66 148 478 597 0
-269 -137 571 -370 0
409 19 87 -591 0
21 -535 -451 3 0
-410 -498 106 376 0
-57 -483 293 60 0
454 -389 -464 -156 0
69 -94 -36 585 0
509 -569 -371 -29 0
296 579 -485 168 0
180 -34 84 -13 0
485 276 -472 342 0
-463 -317 261 172 0
-265 -170 -58 289 0
-452 299 -41 -376 0
236 455 434 -405 0
547 -118 -386 -5 0
469 309 -48 372 0
-282 280 36 528 0
-176 -291 -47 365 0
-572 448 -215 188 0
112 -100 120 -93 0
73 548 257 421 0
-330 228 -170 79 0
215 54 465 -204 0
-41 -160 152 -429 0
-138 9 343 340 0
496 562 105 -145 0
-262 -553 -287 -458 0
467 107 494 561 0
-83 -269 441 81 0
-353 148 -186 434 0
-531 -466 -555 -538 0
-265 -463 302 71 0
140 596 219 426 0
446 -187 465 -341 0
-386 256 529 28 0
302 491 -249 433 0
72 -369 -420 568 0
-64 -477 -29 -429 0
-238 -105 388 -36 0
255 -55 219 451 0
504 -70 -550 424 0
361 -429 193 -65 0
15 -504 558 -191 0
405 -427 80 327 0
-526 -411 386 -238 0
-30 -170 565 535 0
536 554 -391 444 0
-280 400 -539 318 0
-546 -294 -460 -37 0
-172 554 569 -472 0
164 18 213 -443 0
-454 493 559 399 0
-191 -483 -148 -542 0
7 518 -495 -460 0
-8 -417 187 -550 0
378 -492 249 -351 0
-464 -512 38 58 0
482 -224 63 129 0
175 -564 353 459 0
-43 157 340 351 0
229 -593 -461 -470 0
572 -551 71 -369 0
472 239 -541 401 0
305 -286 528 -271 0
183 -73 167 291 0
449 -30 11 434 0
-597 -286 -164 432 0
-331 212 -61 88 0
-590 524 -30 121 0
-385 -148 558 -230 0
562 78 -40 -554 0
-469 -287 203 -334 0
170 524 -472 -73 0
-377 -474 596 303 0
-380 377 27 -351 0
-577 -85 454 118 0
77 573 -230 354 0
376 147 64 465 0
77 404 321 -99 0
-384 504 -303 328 0
-139 -485 395 269 0
308 -59 194 -372 0
173 -292 -293 10 0
-240 -297 23 590 0
-40 -371 169 363 0
-290 490 -259 -91 0
310 417 9 89 0
209 310 -239 -269 0
443 -181 -473 -438 0
-132 -119 -120 155 0
-209 -515 86 230 0
167 539 -52 -570 0
-423 310 -370 162 0
37 -526 -158 72 0
-212 -97 453 -156 0
-56 308 -71 496 0
577 -95 -118 519 0
31 -115 245 -211 0
270 -377 441 -29 0
-401 354 -60 508 0
471 156 -232 -78 0
-201 510 516 79 0
57 324 451 -32 0
211 -62 -435 409 0
413 -407 252 -141 0
505 111 326 536 0
-68 -281 -50 -573 0
32 -416 346 548 0
-539 -566 198 176 0
505 -191 146 538 0
-383 564 -346 281 0
118 590 431 -25 0
241 -439 508 -556 0
577 -198 149 -247 0
-450 373 -532 -319 0
-492 273 -101 -403 0
109 469 -341 -354 0
-267 -367 526 -310 0
82 379 450 183 0
-71 -75 -425 -552 0
204 -385 78 -92 0
-341 -350 -348 277 0
513 253 389 519 0
238 512 -463 92 0
280 -323 -288 -347 0
-10 237 8 -89 0
-509 154 226 536 0
102 -456 -213 400 0
-57 595 -333 -462 0
-588 -88 -417 370 0
266 20 247 -282 0
486 -475 -35 16 0
591 344 -128 -313 0
-397 439 590 338 0
-488 -363 -446 -134 0
-425 -69 458 -210 0
-327 -600 -189 -240 0
234 167 -433 -286 0
-48 55 93 -456 0
291 346 -460 415 0
-580 309 -573 289 0
252 321 360 -154 0
219 495 174 548 0
-588 -569 128 -214 0
-468 484 99 85 0
67 538 480 -39 0
-3 -500 -591 124 0
264 261 391 -84 0
-591 469 372 -311 0
-529 560 345 190 0
-573 508 470 5 0
349 -249 177 343 0
569 -32 564 168 0
-419 -416 422 20 0
-563 -221 -585 370 0
543 -137 112 -2 0
-22 458 48 252 0
-427 -446 594 231 0
-36 -585 -528 241 0
-446 -504 312 554 0
356 -61 -487 -294 0
-137 -438 483 405 0
-515 106 -458 278 0
42 199 -315 -342 0
-184 407 -232 60 0
262 -354 -176 381 0
34 -473 -265 41 0
-151 -153 -279 -477 0
572 -205 494 -589 0
-215 -410 -418 214 0
133 -154 546 364 0
477 -144 225 -510 0
37 239 235 -483 0
557 -599 320 -146 0
-457 12 -274 -203 0
-551 -527 216 -547 0
-369 -499 -561 13 0
381 -117 -489 432 0
-396 303 379 -366 0
502 -553 -228 -475 0
149 -462 -203 439 0
136 539 -570 -219 0
-480 -531 -223 -217 0
523 384 596 431 0
-31 -131 340 12 0
-415 -38 -413 -469 0
-305 -582 591 545 0
-92 -1 237 -541 0
157 -106 334 -361 0
211 -587 -425 234 0
-8 206 -570 -577 0
-377 -204 -77 -482 0
94 -17 -150 479 0
-172 360 -400 473 0
-210 -292 518 -463 0
-401 6 -99 595 0
406 24 -453 -213 0
459 572 585 203 0
287 94 496 -442 0
-203 508 100 425 0
-573 -111 -15 -293 0
446 589 308 262 0
553 452 563 -59 0
-514 -587 31 340 0
-454 556 311 461 0
243 -456 281 -252 0
-327 220 -516 -42 0
-524 585 400 -288 0
-228 -306 -238 367 0
-192 -105 -365 -399 0
560 -47 -215 -339 0
-307 -61 -218 489 0
-597 -126 84 -437 0
244 589 -415 321 0
72 -577 -46 44 0
221 -222 382 -135 0
-103 -229 528 -322 0
-347 494 198 -532 0
302 -363 -477 -97 0
-93 303 582 593 0
38 365 345 124 0
-591 -422 546 -449 0
8 -550 12 319 0
572 375 18 -503 0
226 -213 -144 77 0
44 577 272 -43 0
75 -483 -508 -372 0
-554 8 398 410 0
425 135 34 236 0
76 -440 -326 -503 0
65 -556 84 125 0
-236 -227 201 61 0
-508 -595 -139 -61 0
350 441 569 518 0
597 397 -111 -585 0
-32 353 168 92 0
7 532 126 415 0
14 260 262 417 0
512 105 -263 -40 0
334 -270 -288 580 0
341 514 -36 -424 0
443 -571 226 -560 0
-146 281 -81 313 0
-466 -454 442 184 0
466 416 -400 -88 0
293 -508 -143 -538 0
385 -532 328 597 0
-133 -457 -398 87 0
-409 446 -9 195 0
-562 -423 -495 -48 0
-503 -303 46 162 0
-212 -89 -152 -331 0
-400 35 1 -534 0
-400 65 -464 185 0
-9 -369 234 339 0
381 424 -18 338 0
-249 -154 -130 127 0
278 -265 232 112 0
288 -32 552 498 0
477 -494 558 -155 0
-118 -438 544 151 0
530 83 515 112 0
-155 -319 167 419 0
446 -223 -341 371 0
356 -131 428 219 0
-201 506 -153 -323 0
335 120 70 478 0
-340 -48 256 -258 0
-484 -163 -8 -269 0
46 -546 -132 554 0
-513 -458 -81 133 0
221 -400 569 369 0
-406 -132 98 -36 0
-270 -226 -4 -125 0
146 -392 314 -361 0
-491 100 126 372 0
-462 -169 -443 -479 0
310 -232 302 309 0
365 565 -424 71 0
-525 414 -55 134 0
223 -468 -448 225 0
-216 -220 121 -165 0
-42 450 15 297 0
-538 -224 406 -569 0
-7 -471 19 227 0
-412 13 -4 461 0
-159 124 186 552 0
-516 426 551 -169 0
268 221 211 -203 0
442 -584 171 -38 0
-280 -557 361 -238 0
349 534 -284 593 0
-317 -444 -360 101 0
-241 479 -571 91 0
-231 386 259 542 0
371 -566 382 -587 0
-203 107 -214 -420 0
501 -410 -473 -438 0
573 -436 -74 214 0
75 599 -355 226 0
558 305 -184 443 0
-14 -502 -416 -118 0
109 -343 -316 -539 0
-258 512 -161 -77 0
538 404 -100 -394 0
-19 320 -585 92 0
-28 391 -466 -587 0
-38 -599 -404 -122 0
-313 230 178 -59 0
-163 274 372 -481 0
-455 -201 161 -501 0
99 -478 512 -211 0
435 521 349 417 0
-431 65 -36 -537 0
388 491 301 -218 0
-279 -509 -53 -173 0
435 360 404 -271 0
266 -598 272 454 0
245 282 454 -259 0
-25 374 -248 454 0
537 -408 323 -233 0
358 -287 -568 -34 0
222 204 -547 381 0
254 417 389 -311 0
-30 487 227 -470 0
2 396 224 -181 0
47 145 -418 370 0
-211 207 -299 405 0
-404 443 -39 -254 0
-585 -486 -271 115 0
590 -291 72 -55 0
-495 -547 113 336 0
-473 -488 -580 481 0
-438 -90 270 -258 0
-485 541 -216 350 0
188 -420 -33 191 0
-343 444 482 62 0
123 -164 -187 -245 0
-113 -131 193 504 0
-305 105 -213 -255 0
-518 -12 502 -593 0
-373 -122 31 438 0
551 309 -452 -544 0
-261 530 -360 -474 0
-8 299 269 -133 0
463 568 519 -251 0
-85 439 505 532 0
274 43 565 576 0
-25 205 -191 35 0
-351 -159 -434 56 0
-39 -134 412 391 0
-252 -367 -410 -362 0
121 362 -282 -62 0
-121 150 -366 -221 0
-132 -206 81 545 0
530 -130 57 309 0
-58 -355 305 -544 0
498 -458 210 -539 0
-336 -243 -539 -108 0
193 528 142 448 0
101 -517 -352 -190 0
541 539 -82 345 0
127 -589 434 -337 0
347 16 -302 525 0
-334 -32 -523 -586 0
244 -341 28 -455 0
361 -216 -378 341 0
138 -157 458 -450 0
509 -505 -279 382 0
-130 -223 527 459 0
-495 482 40 18 0
292 -561 318 583 0
-109 447 437 136 0
-501 -121 158 338 0
462 442 -458 -270 0
159 -157 -503 -152 0
-290 -377 116 207 0
-58 -348 -290 -374 0
345 -373 446 192 0
220 209 -382 496 0
574 365 -8 309 0
-53 -301 -206 -82 0
-329 -163 -96 -593 0
-48 249 71 431 0
519 -560 -359 26 0
-202 -81 -96 -111 0
50 34 -195 -244 0
44 190 3 242 0
65 -574 546 217 0
-423 464 443 414 0
9 -557 -239 307 0
-415 446 -300 -493 0
-31 264 -475 -573 0
445 417 246 453 0
-563 486 -455 310 0
91 -314 264 394 0
-343 -256 -95 -335 0
286 11 -157 388 0
-579 385 275 -398 0
125 551 -187 143 0
-140 -273 -393 -574 0
-236 -498 572 -277 0
