c Random CNF formula
p cnf 500 3500
-328 -58 13 380 0
-457 -280 -45 303 0
14 288 -102 367 0
415 446 -4 -389 0
-491 -391 173 53 0
414 23 -374 236 0
425 322 317 -454 0
117 396 -149 -41 0
-428 187 84 190 0
37 -312 -326 -88 0
-474 -328 353 -286 0
-421 -17 413 162 0
-368 162 109 -336 0
72 127 -382 288 0
-186 113 71 -261 0
82 -406 349 -217 0
129 498 -284 441 0
-385 -137 -394 -329 0
370 449 369 -135 0
321 -153 -431 -328 0
489 399 -473 -272 0
-186 -450 426 414 0
-44 375 249 -418 0
-244 485 -282 -85 0
-277 -387 374 354 0
-225 -461 -265 232 0
-118 302 -113 4 0
-441 170 -37 -264 0
-479 452 293 -296 0
-50 -338 221 182 0
331 51 -32 -207 0
-275 -230 72 -217 0
-414 442 439 -282 0
-48 -475 -386 435 0
-463 -31 85 195 0
147 217 357 -491 0
-98 152 -112 -496 0
26 300 -245 258 0
-436 96 -36 305 0
-292 -127 297 305 0
162 -479 -134 -105 0
331 154 -235 162 0
-289 -52 38 276 0
-451 126 190 146 0
414 335 271 -5 0
450 69 -136 -60 0
108 368 176 -105 0
465 434 -27 -48 0
67 327 -135 -83 0
39 484 453 354 0
-76 221 66 22 0
-461 -184 108 350 0
-209 499 318 384 0
-416 91 -452 212 0
411 -343 443 -377 0
-447 20 -440 -241 0
-408 -447 -117 115 0
496 -396 143 180 0
481 -15 60 -450 0
56 -306 223 177 0
-198 461 -296 98 0
276 352 -369 -482 0
-341 472 170 -320 0
-159 -342 -210 -168 0
482 195 -347 384 0
-1 156 147 -108 0
-227 346 110 -262 0
44 -146 264 340 0
-345 -159 -116 -413 0
-436 394 -38 234 0
254 -205 125 76 0
-55 399 218 -113 0
-128 470 435 63 0
305 163 487 387 0
426 465 -281 -229 0
127 431 327 -142 0
-40 -366 147 -121 0
119 -197 -356 79 0
-213 32 106 427 0
-439 -451 -392 295 0
-437 457 489 428 0
-113 -250 140 224 0
371 85 431 240 0
-304 -289 340 -14 0
-134 -195 168 -109 0
488 -426 216 -130 0
-488 180 -115 -333 0
127 -103 -430 -11 0
-486 -112 239 359 0
-368 -59 399 420 0
-295 347 -465 491 0
426 -322 125 53 0
-408 -290 -401 22 0
175 -7 435 216 0
-425 236 363 -79 0
-414 -471 276 -397 0
-437 126 -426 -479 0
-313 343 -195 -173 0
409 133 -175 -144 0
486 -98 44 124 0
331 -365 -252 230 0
-157 340 -298 189 0
-170 -181 -360 -233 0
62 -381 -275 -487 0
371 302 390 -269 0
185 -92 -155 -8 0
150 358 -484 -65 0
-146 241 -246 226 0
-59 421 34 -206 0
-416 -289 486 -156 0
306 -405 317 -116 0
302 220 157 292 0
107 -321 -109 -136 0
2 -210 -231 353 0
360 441 233 37 0
-339 412 479 102 0
-424 -73 37 31 0
148 225 64 240 0
-253 -225 -42 -307 0
47 118 493 346 0
-345 421 -138 296 0
-470 143 93 -300 0
-210 -171 -165 -344 0
340 -484 -206 -417 0
60 497 -396 207 0
237 212 -28 -97 0
-27 -105 137 -282 0
15 499 -323 -312 0
209 -48 -116 431 0
256 -478 367 150 0
-125 234 283 75 0
443 -36 142 396 0
-421 2 145 -372 0
-77 229 276 -248 0
-165 -446 97 -358 0
163 -382 243 362 0
-334 78 254 494 0
448 -433 226 -52 0
-336 497 -80 39 0
333 42 -437 -169 0
368 -455 -389 250 0
-472 148 117 383 0
-52 -228 -86 -356 0
-184 -192 221 -75 0
-90 41 -313 446 0
-119 237 327 -131 0
-148 347 280 -81 0
-493 -218 354 129 0
-55 -122 196 -293 0
-425 338 203 141 0
467 311 382 -255 0
-411 -181 113 326 0
-349 430 -71 322 0
-18 297 -187 -375 0
103 -68 403 -277 0
85 132 -468 423 0
-412 59 -240 494 0
346 -204 496 -434 0
275 64 233 189 0
-482 -191 56 346 0
-469 313 114 -332 0
210 -60 -72 -24 0
-455 276 70 199 0
-215 -301 -381 -373 0
-209 -481 -488 144 0
-438 186 51 -352 0
142 98 -496 -63 0
-328 -306 498 11 0
106 36 425 -392 0
397 -76 404 462 0
-277 129 -409 -90 0
-404 -122 -302 -166 0
-59 -382 33 -244 0
114 485 315 -23 0
330 494 -16 -32 0
365 -466 -228 -38 0
320 -325 300 -281 0
259 -310 221 51 0
-283 370 -444 111 0
-205 -213 -374 49 0
-352 -473 -243 35 0
-191 416 67 285 0
211 -182 448 -341 0
-148 308 -160 -181 0
434 -56 -180 -433 0
220 433 288 499 0
312 -476 -337 425 0
-472 -174 180 -4 0
-380 325 -498 -16 0
-81 190 160 370 0
-80 -81 -387 -317 0
-311 227 -213 -140 0
348 -304 -250 270 0
-4 -105 -155 -485 0
-4 -255 383 221 0
-427 343 -413 -182 0
472 40 442 -161 0
-59 208 11 495 0
471 -186 46 224 0
-203 -446 -159 382 0
59 -272 262 100 0
-418 -76 121 53 0
336 -39 91 488 0
230 349 474 452 0
-322 -162 -78 -226 0
-29 -181 -260 38 0
-40 331 -443 438 0
-489 406 379 -459 0
310 -244 257 78 0
-366 -44 -259 -331 0
-268 -313 -82 -187 0
307 -27 -405 324 0
146 130 371 -437 0
-299 340 73 -470 0
-305 -363 481 44 0
344 360 425 485 0
-217 -261 -186 10 0
-249 -99 116 71 0
277 428 379 453 0
-306 193 79 84 0
-370 225 23 211 0
-386 -384 402 230 0
463 428 -100 189 0
-399 -196 -258 271 0
-447 -129 27 329 0
-265 -436 -64 146 0
426 224 47 485 0
-213 -28 -203 -258 0
164 -477 -51 -430 0
470 425 -242 357 0
-464 -41 10 132 0
-217 -57 -398 148 0
319 -235 33 57 0
-295 -124 -368 74 0
96 -341 343 44 0
-403 -260 284 11 0
130 -383 9 183 0
-396 -298 377 388 0
-90 426 399 351 0
-33 -367 -398 -484 0
22 162 478 -159 0
-386 332 98 -147 0
64 410 189 -224 0
-499 96 255 355 0
373 218 41 -221 0
-41 168 -339 152 0
180 -229 22 -373 0
406 -486 30 39 0
82 488 -16 -74 0
-121 399 -331 -188 0
-231 -486 -190 -191 0
161 -333 -143 128 0
468 288 -61 135 0
-356 470 -252 103 0
228 45 415 350 0
-282 -278 149 457 0
-90 407 186 -261 0
253 -14 185 -284 0
-453 45 -34 -159 0
-210 -422 -295 -38 0
265 177 66 450 0
67 222 258 -467 0
-83 166 479 -364 0
41 -129 101 326 0
48 258 -329 87 0
462 -310 173 -432 0
-486 -329 395 296 0
16 255 -456 -322 0
-414 351 -208 -153 0
-238 105 -175 311 0
177 500 -205 -67 0
-63 -137 231 127 0
215 128 493 444 0
98 -391 82 -256 0
-47 -484 202 -259 0
145 254 -306 -452 0
-56 -221 -69 -452 0
-27 -292 -288 -100 0
282 -144 423 -320 0
-407 -174 286 -481 0
21 24 20 -71 0
458 -264 -72 168 0
432 154 -304 173 0
-244 -418 -9 -189 0
461 372 -447 353 0
-498 -398 -297 296 0
-370 318 -397 431 0
-359 -57 -98 -10 0
-257 397 314 472 0
266 -107 -288 167 0
236 468 273 176 0
-412 355 -136 -313 0
-483 -499 153 -395 0
179 -287 479 408 0
459 203 -420 -177 0
-366 -41 -178 -474 0
276 -139 478 288 0
125 26 -343 -464 0
368 -242 52 349 0
209 -335 -479 451 0
165 -147 331 31 0
371 -436 480 -20 0
471 -19 429 204 0
-149 449 20 -5 0
-233 329 279 -269 0
-99 -415 -58 -170 0
378 173 -405 152 0
460 -208 424 -219 0
-72 -245 -166 480 0
489 -169 155 299 0
-32 -342 61 239 0
-361 395 -160 354 0
-113 491 69 -245 0
282 468 -242 -388 0
-387 -306 448 -404 0
289 58 32 -425 0
-168 -438 267 -227 0
-262 229 -415 -29 0
237 -345 414 158 0
-297 -38 24 217 0
-36 -479 -242 17 0
-374 331 -494 216 0
194 193 -42 350 0
61 92 -276 -202 0
12 -153 -238 -345 0
-236 178 80 -142 0
339 215 -315 -393 0
305 18 -229 -307 0
225 120 -277 112 0
120 418 470 375 0
122 155 -449 -74 0
286 -486 303 451 0
25 -498 177 483 0
-210 77 -154 -193 0
-440 -363 -74 -413 0
-272 -69 -199 -125 0
190 -48 -275 371 0
21 448 38 -97 0
-107 446 -465 -171 0
-380 -61 383 -387 0
469 -123 283 -165 0
-134 -185 263 -452 0
-430 -164 469 -105 0
75 9 -134 -284 0
169 -118 195 292 0
132 391 -421 -251 0
408 -181 87 72 0
-329 491 31 269 0
392 -4 212 -71 0
259 234 192 -31 0
250 -9 4 -273 0
147 -9 258 -417 0
-471 50 -269 -77 0
408 -204 -41 192 0
-154 351 424 -435 0
-208 195 194 -283 0
-433 223 331 402 0
471 22 118 -109 0
474 39 -351 144 0
162 9 493 -107 0
-40 154 -84 289 0
-170 197 387 379 0
-499 178 -28 51 0
489 -305 -204 497 0
252 -117 183 284 0
44 396 -317 -152 0
365 -402 -325 -79 0
-158 -228 -185 -390 0
-285 -263 -209 53 0
-167 -443 -198 7 0
-464 -125 -293 -267 0
-253 -75 -33 -86 0
129 484 -127 -370 0
-156 4 486 -203 0
172 221 -418 -422 0
-486 356 103 -246 0
356 -325 -252 496 0
202 187 59 478 0
-282 14 -488 -373 0
355 -36 -420 435 0
124 130 -338 79 0
246 299 206 274 0
405 496 185 -360 0
-394 128 -337 341 0
347 332 -205 -496 0
133 114 262 -383 0
201 238 -396 -348 0
54 -152 213 -472 0
-160 -176 -234 -402 0
-357 232 -164 35 0
-332 56 -347 -410 0
82 -170 -287 -219 0
-328 337 -222 203 0
-200 3 361 -110 0
-53 -410 -447 -275 0
442 251 271 495 0
179 181 433 -235 0
-315 -303 -44 -345 0
-356 -73 -262 -199 0
326 276 356 -471 0
-72 -96 -162 -432 0
70 100 -418 197 0
-213 -364 -431 228 0
150 -17 -141 116 0
-393 -254 282 262 0
-188 278 422 388 0
53 -377 425 -335 0
-179 442 419 -45 0
-416 378 302 -353 0
-72 -402 -106 -417 0
-276 87 166 361 0
-461 348 -418 -49 0
142 -444 -336 -65 0
-127 -390 432 347 0
193 232 -39 325 0
-356 -480 450 189 0
434 376 48 375 0
408 274 -204 -112 0
-146 173 281 296 0
391 25 -24 51 0
81 -226 234 1 0
452 333 -155 -82 0
43 -191 341 463 0
-387 -120 -220 -336 0
-304 -116 -266 -349 0
-441 -217 -356 68 0
-53 -161 189 452 0
329 -347 74 -36 0
-370 -110 322 384 0
45 460 -52 72 0
-162 -406 72 127 0
312 146 399 -482 0
266 -311 -261 97 0
-489 -123 254 198 0
-7 185 479 -163 0
350 89 -391 -242 0
-135 111 21 473 0
257 -393 213 217 0
143 -43 159 41 0
201 301 -325 391 0
-374 -489 -434 -123 0
312 29 -159 342 0
360 6 84 255 0
86 -191 65 384 0
-16 -172 414 220 0
-40 -255 234 -262 0
131 396 -53 458 0
-23 -440 -442 -7 0
477 492 440 -19 0
165 -128 -214 -469 0
-258 345 462 27 0
-36 450 -239 444 0
5 -189 103 -150 0
303 498 253 396 0
-78 4 478 210 0
5 -487 172 -1 0
-106 -272 122 215 0
48 23 472 -119 0
-499 -383 44 -298 0
291 -32 -223 -340 0
411 -202 -359 -426 0
104 -70 -400 -395 0
209 -62 -275 -184 0
62 47 81 -414 0
-428 -439 -168 76 0
347 -154 -134 -420 0
-384 282 -128 -49 0
-426 -400 114 67 0
44 -299 301 -133 0
-331 228 415 -66 0
483 -237 26 -87 0
-196 350 -219 -89 0
77 18 -315 318 0
-246 -32 45 144 0
128 323 411 -279 0
279 401 -249 -177 0
164 306 -113 16 0
272 184 -393 300 0
137 -274 418 -406 0
434 409 -199 -182 0
-163 413 378 -358 0
-291 289 73 -486 0
-159 -90 -252 20 0
-1 -170 470 315 0
-433 445 166 31 0
434 -270 441 -187 0
-52 -173 155 166 0
-492 250 333 163 0
403 -183 -115 341 0
66 91 -374 1 0
495 291 17 -94 0
-290 54 -480 255 0
-86 326 454 494 0
-229 -6 -136 -108 0
1 25 198 -225 0
-194 -180 280 193 0
-352 116 -84 -232 0
-488 -54 38 176 0
460 48 174 -305 0
-335 -85 -311 456 0
210 357 284 -370 0
50 -26 -202 -293 0
45 -151 -422 -339 0
327 -150 -42 -243 0
339 -136 47 -329 0
-229 -23 -135 -226 0
-386 -357 342 50 0
302 117 -284 32 0
444 -480 -244 294 0
366 18 258 293 0
-62 487 388 230 0
65 -22 217 41 0
428 305 -133 -164 0
-204 -283 167 439 0
-320 -301 -268 401 0
389 494 -482 -52 0
-275 -451 -177 450 0
-20 89 142 -207 0
-456 451 170 354 0
-11 -173 -419 407 0
-51 498 -445 117 0
138 -374 -214 310 0
380 249 389 -265 0
-160 364 260 -207 0
99 -449 -427 103 0
361 102 141 -189 0
16 -124 191 251 0
180 177 84 -429 0
198 26 84 438 0
-347 -106 138 334 0
5 243 -467 -68 0
413 483 -157 -365 0
-179 236 130 -112 0
53 4 262 340 0
-145 -153 -351 -56 0
142 134 -336 365 0
124 461 -30 -413 0
-72 -370 14 -336 0
378 19 -299 363 0
-352 274 -327 -402 0
88 -431 -337 449 0
372 414 287 391 0
114 -182 115 -382 0
-300 -151 238 436 0
-318 -37 242 456 0
-212 28 -446 438 0
-458 465 235 -74 0
-324 -91 -161 325 0
296 392 -82 -251 0
-220 -207 -495 -245 0
8 -457 165 388 0
-128 -116 -356 450 0
-86 -34 422 24 0
173 -223 455 -352 0
97 -85 -486 465 0
68 -109 -376 12 0
-20 193 -449 328 0
-339 56 -335 -429 0
-281 130 243 -360 0
-339 52 -340 267 0
-54 -262 -369 -317 0
103 -399 135 -426 0
-21 281 -255 -467 0
344 46 -465 -57 0
262 39 -371 52 0
136 238 26 -52 0
-347 161 219 -379 0
-71 340 332 -88 0
-376 -48 -191 -418 0
-428 -198 354 -436 0
68 357 -372 31 0
-248 411 292 348 0
442 351 -451 -430 0
-455 211 -226 24 0
269 -393 381 296 0
266 -268 353 -359 0
-340 347 329 198 0
6 -330 -479 -81 0
-385 -252 165 124 0
-194 -207 419 -121 0
256 229 -162 -61 0
19 286 282 1 0
456 -261 -288 106 0
-419 115 433 233 0
-187 367 -232 -59 0
325 -494 -410 150 0
253 -72 -421 -368 0
-62 477 -437 -202 0
388 213 -24 475 0
235 338 -302 490 0
284 479 222 430 0
355 -297 89 375 0
-165 259 452 -197 0
-204 494 -176 497 0
454 384 -263 154 0
-284 324 112 103 0
68 364 333 -500 0
-60 390 181 -288 0
-383 458 431 274 0
13 -196 75 -28 0
147 350 -129 75 0
-17 184 417 232 0
-381 332 288 -200 0
-341 25 475 -196 0
-283 28 7 381 0
425 116 467 325 0
309 -101 -398 372 0
96 -493 -89 377 0
-67 -83 300 -434 0
-79 476 166 306 0
-252 405 -294 -282 0
95 -267 35 -403 0
-114 -453 -110 340 0
272 244 -288 -422 0
124 -464 -329 315 0
-196 -469 408 -484 0
265 421 -395 -192 0
-334 -99 165 264 0
-274 4 -321 34 0
428 54 106 -276 0
419 -482 37 -383 0
-38 -28 92 407 0
-209 -199 -231 -323 0
-4 329 -369 317 0
-184 476 258 -55 0
475 -225 -196 -203 0
383 -201 408 -409 0
455 469 495 -408 0
-448 285 -73 64 0
44 157 -108 384 0
-436 263 -73 -83 0
-344 410 291 437 0
331 -282 -38 149 0
488 -170 -183 -66 0
-100 163 249 -231 0
291 -187 -414 162 0
-365 -379 329 -224 0
246 -237 -229 184 0
42 431 -144 440 0
321 40 373 39 0
-297 -208 -394 303 0
-277 -242 335 397 0
439 -149 -69 -238 0
123 435 494 -413 0
82 92 -290 486 0
481 -184 -21 -113 0
343 -106 266 465 0
21 333 166 53 0
-135 297 -279 292 0
-428 40 265 -129 0
-445 177 250 -406 0
85 -118 -40 -264 0
-368 419 61 -339 0
246 -108 -303 -83 0
304 83 -69 -323 0
-473 93 265 491 0
373 -339 421 -146 0
-247 -88 113 426 0
-320 338 262 136 0
-36 -118 194 198 0
351 -215 424 77 0
450 -402 273 258 0
277 424 -1 -460 0
-448 23 -358 272 0
180 302 412 -380 0
131 -245 393 120 0
132 -97 3 364 0
193 -336 -106 -353 0
300 130 134 438 0
204 387 -105 212 0
-248 130 158 296 0
-338 61 -383 -118 0
206 403 174 -411 0
-494 -326 3 -412 0
-33 -135 -114 190 0
315 336 267 147 0
-328 254 225 -6 0
18 -402 -307 -262 0
-123 336 1 -500 0
203 208 -301 -103 0
146 -372 425 -287 0
311 494 -100 -233 0
-55 287 38 258 0
449 276 417 407 0
395 -125 -388 174 0
-15 247 60 133 0
118 410 -162 212 0
128 148 -48 205 0
244 -161 182 112 0
-466 98 256 -378 0
104 -428 -128 429 0
347 490 340 -253 0
-247 191 318 162 0
252 -94 392 -469 0
270 -410 -217 245 0
-398 90 -235 -500 0
-346 -108 195 -298 0
135 -122 -138 -242 0
-215 -359 -386 191 0
-295 -352 -118 -417 0
196 -101 75 -410 0
256 69 -458 -435 0
-129 -288 -440 -291 0
-131 244 -430 -323 0
-286 -478 -415 132 0
311 102 296 -295 0
167 -345 -262 250 0
238 324 490 -75 0
314 -293 -208 -435 0
335 -150 364 137 0
481 -186 -383 301 0
-65 373 121 -339 0
204 -53 -49 33 0
-269 -392 43 54 0
-159 118 -127 378 0
15 -18 -340 183 0
-277 479 140 -281 0
306 234 324 384 0
159 466 -178 -247 0
-134 80 156 -6 0
241 274 -5 -353 0
-221 -409 -150 -306 0
-288 224 -203 -128 0
-135 41 217 321 0
351 140 -146 333 0
94 70 -149 57 0
-97 165 -10 -78 0
138 -65 -367 -225 0
176 216 -160 403 0
170 -42 432 -385 0
241 93 99 -459 0
394 -366 128 -198 0
236 377 -395 49 0
160 -480 166 82 0
-130 247 327 -153 0
-58 -121 -325 -223 0
-405 125 -5 497 0
-191 -395 46 128 0
389 321 31 -183 0
120 -163 286 404 0
11 -353 -194 184 0
-287 151 278 -357 0
240 141 -445 426 0
231 -152 420 135 0
376 -95 453 -10 0
33 -338 496 276 0
-79 -314 -145 166 0
-23 -428 -481 -67 0
-17 -293 329 429 0
26 -188 114 311 0
-476 456 -427 41 0
456 -213 421 189 0
-376 -37 428 -156 0
-119 273 198 98 0
-286 384 -213 -383 0
-341 -219 -453 -54 0
81 274 308 227 0
433 191 -212 -392 0
280 110 -193 -393 0
-492 -204 -1 -372 0
456 -155 -4 154 0
483 354 422 142 0
-49 -20 236 -183 0
132 416 -154 -48 0
-167 406 248 89 0
-49 305 -329 154 0
472 -395 172 -179 0
395 117 383 335 0
-28 157 -269 22 0
79 26 345 375 0
47 -114 -222 -149 0
-382 -26 -281 205 0
-391 -70 247 287 0
-377 269 -127 125 0
-46 -58 -344 212 0
13 395 157 -87 0
75 -226 -23 474 0
-437 44 58 379 0
420 -148 -8 -176 0
-108 379 -276 -109 0
374 -73 356 358 0
-131 88 -31 -146 0
484 5 35 -199 0
56 -10 150 445 0
-364 51 -463 -162 0
495 -235 288 -475 0
-251 202 -382 -81 0
257 142 416 32 0
-16 -484 285 486 0
45 374 196 -267 0
124 294 -79 219 0
106 335 71 -298 0
-362 461 269 -466 0
-478 290 470 -81 0
163 430 451 -75 0
211 156 227 -382 0
-399 97 55 -68 0
-291 314 -119 306 0
245 69 -258 434 0
-252 -243 71 -84 0
139 487 212 -114 0
475 489 225 444 0
219 208 398 -22 0
481 381 293 -305 0
56 232 -234 424 0
377 21 -286 -199 0
204 -453 -156 397 0
-28 354 -265 463 0
58 93 -399 -300 0
231 13 -92 -233 0
129 166 355 -333 0
-59 362 -231 325 0
-262 -314 487 82 0
-290 447 -338 442 0
215 -158 159 -374 0
68 -492 -104 2 0
279 -414 3 -312 0
210 -227 41 308 0
-286 -420 423 -107 0
438 -17 342 -296 0
-214 92 83 345 0
288 -91 -495 234 0
166 189 460 -195 0
242 -69 -63 -356 0
108 314 30 -56 0
371 353 -310 479 0
-133 -270 295 320 0
-324 255 253 414 0
1 -61 13 239 0
-213 212 -24 171 0
-354 -145 131 405 0
-59 352 171 175 0
100 -170 -427 -174 0
-70 247 80 -322 0
-417 212 476 381 0
285 -275 10 107 0
34 -497 -77 144 0
-85 -293 311 -200 0
-440 -162 364 -17 0
425 -487 -155 -111 0
104 468 48 -228 0
175 -473 -248 376 0
51 -421 481 -265 0
-366 443 268 60 0
-45 171 240 -456 0
296 -389 -160 -328 0
-164 -396 -226 -344 0
-319 -287 -264 -53 0
-361 -412 146 -294 0
-228 26 -67 -15 0
219 201 92 361 0
316 183 160 171 0
-499 -473 387 392 0
240 50 -234 -159 0
115 74 -441 459 0
341 -170 -404 -441 0
-180 246 237 -434 0
53 -208 419 366 0
-273 237 206 303 0
197 34 175 -107 0
-404 176 -279 356 0
294 -429 250 59 0
-91 -158 490 208 0
195 -168 254 331 0
-463 -387 -326 415 0
-200 316 -296 229 0
468 -348 156 -471 0
46 -299 -5 -314 0
-190 462 282 -496 0
-441 145 -444 -16 0
-196 -208 -223 280 0
-432 -474 185 -431 0
-6 37 332 9 0
70 44 71 329 0
-477 -218 320 -93 0
-116 -96 218 310 0
138 -211 -475 -280 0
189 -58 298 247 0
-440 -385 399 -144 0
242 -323 380 340 0
-160 314 -28 463 0
-241 294 376 -170 0
19 356 473 -306 0
-243 297 87 294 0
147 249 -43 -65 0
-144 -141 -440 132 0
78 -338 229 -190 0
-410 -271 -442 17 0
79 429 -254 -386 0
327 -86 108 296 0
-60 -27 86 238 0
273 -120 -195 350 0
-7 148 475 409 0
22 50 -470 273 0
-440 -140 172 -139 0
396 346 -384 -124 0
-354 -93 -161 -281 0
-269 54 -351 -229 0
318 48 -30 481 0
-63 363 -491 62 0
-332 -290 -412 -496 0
-339 480 39 328 0
-342 -395 166 -132 0
171 -31 -133 490 0
103 -313 202 -92 0
-315 -330 -55 -468 0
-373 -129 398 -229 0
-20 -341 -200 -137 0
-363 -482 395 252 0
-36 277 116 -2 0
275 -479 184 171 0
47 -188 -274 437 0
-332 -104 -91 284 0
-459 -55 323 353 0
72 19 -99 -13 0
277 330 -158 256 0
19 -174 -29 173 0
342 268 -235 482 0
-474 37 -19 377 0
-24 -125 -360 -333 0
-407 50 234 -313 0
-255 305 -410 316 0
-378 348 206 -167 0
-494 -407 -110 -392 0
-388 -213 -87 357 0
69 -52 -406 434 0
-42 4 92 -475 0
414 -406 396 244 0
211 -123 -481 -90 0
487 -46 -322 -424 0
-61 272 49 -317 0
-395 -321 338 107 0
-496 467 -243 255 0
-146 108 223 -129 0
-380 27 -474 -276 0
459 -121 -370 228 0
-167 -118 399 57 0
-193 -457 113 -38 0
-476 -313 233 92 0
-500 139 -104 -172 0
-437 -239 235 215 0
405 -407 327 488 0
-45 211 439 268 0
143 -8 -374 220 0
-457 475 -303 485 0
21 -241 -376 394 0
-357 -421 51 232 0
-209 -487 112 -68 0
-343 157 83 361 0
238 -396 71 448 0
361 -325 1 441 0
152 219 386 -139 0
-351 42 318 451 0
-187 -455 -27 -57 0
332 287 -361 -35 0
277 59 333 245 0
-386 382 390 -116 0
-28 33 191 -177 0
-273 348 423 461 0
-415 482 -453 -34 0
-92 -148 -491 -490 0
78 -448 -105 267 0
-478 68 -243 -178 0
12 447 -411 119 0
-336 331 403 168 0
235 -156 291 -68 0
191 -498 -148 395 0
317 -474 -83 365 0
-464 -342 407 79 0
-226 134 190 95 0
76 191 -230 -277 0
477 256 -394 75 0
280 -500 260 170 0
387 294 342 -76 0
-58 375 -246 -461 0
-317 -431 113 -229 0
270 -114 -401 480 0
347 -344 -491 45 0
262 -484 29 -466 0
-198 -191 -7 146 0
111 -373 -455 -228 0
373 -497 460 218 0
74 107 -156 244 0
-303 388 -193 -46 0
237 -364 291 -387 0
-252 22 -422 424 0
-115 -14 406 2 0
-64 -335 341 458 0
-15 62 392 -142 0
-247 290 224 445 0
-192 -263 376 -295 0
-237 -450 -355 70 0
-490 183 -25 -149 0
322 -94 -392 -49 0
-433 351 -410 155 0
-181 -422 74 -7 0
-472 467 84 53 0
287 315 354 426 0
411 -59 -214 -236 0
-179 -160 354 186 0
-497 176 -89 -364 0
-356 -73 353 -117 0
-391 -402 -58 -40 0
17 -407 338 -263 0
-155 -342 6 387 0
-103 -95 344 -180 0
297 179 181 83 0
35 51 420 297 0
-88 462 387 276 0
436 -363 244 -188 0
-428 -182 -195 218 0
-64 239 57 267 0
-21 -43 168 -253 0
500 -431 228 -116 0
-36 459 -431 411 0
-252 345 -54 -203 0
206 356 -303 -53 0
102 -174 -103 -305 0
256 143 392 366 0
483 205 183 244 0
-76 -394 -233 56 0
16 -51 -378 -28 0
-310 348 168 79 0
-267 -393 -253 406 0
278 -176 415 441 0
-451 469 -61 -197 0
91 286 -338 -441 0
160 367 -200 250 0
277 -293 -241 -244 0
303 498 -194 -316 0
-303 24 66 429 0
-321 175 -195 -50 0
-126 -127 121 332 0
59 -173 87 -11 0
-264 -462 -216 -137 0
-293 -200 166 -294 0
255 -258 -416 392 0
104 -255 326 -434 0
-136 -25 153 -294 0
-433 -297 49 -304 0
108 -178 408 -40 0
-277 161 -103 213 0
93 452 10 -322 0
-493 422 381 481 0
394 465 223 -479 0
76 -124 -78 -383 0
-426 -467 33 325 0
-132 -352 -308 -121 0
424 -159 238 -249 0
-82 140 70 -15 0
-437 -22 494 -370 0
309 -153 -444 33 0
47 -204 -483 430 0
478 62 268 -341 0
-453 47 -122 308 0
-200 -413 -384 -381 0
-497 141 -226 -210 0
-486 58 163 280 0
480 75 -186 244 0
311 18 431 379 0
-123 130 -283 197 0
63 -274 444 -122 0
470 131 -155 47 0
-83 469 225 324 0
141 -444 42 422 0
171 -368 -217 -449 0
34 181 -216 309 0
391 27 -329 -95 0
-322 -157 161 295 0
426 333 391 -67 0
-245 448 377 69 0
-102 44 213 189 0
115 11 486 12 0
499 -237 -102 -135 0
-134 77 -46 491 0
-223 396 -472 476 0
98 -485 -442 -417 0
439 -106 308 -111 0
-210 -406 75 15 0
-190 -299 -351 -332 0
355 204 352 -109 0
-49 -286 31 27 0
481 344 -496 -411 0
318 -196 155 -203 0
-92 -134 -87 -258 0
-364 -272 222 -73 0
-499 -428 144 -383 0
425 -390 -475 136 0
252 392 487 -78 0
-97 -77 -28 -118 0
-60 -459 475 -254 0
253 -58 -434 369 0
93 -428 87 384 0
299 -498 3 -270 0
-256 -347 49 -455 0
-192 -303 -476 -488 0
363 -338 246 -233 0
-23 336 319 487 0
409 292 -67 109 0
381 -37 -281 -488 0
-395 -444 -205 -46 0
-332 -386 489 335 0
472 -159 -463 -351 0
-103 -251 229 -454 0
-217 416 -189 315 0
499 238 347 115 0
-332 -269 43 -149 0
66 351 -463 -154 0
-40 -470 -24 263 0
-292 -417 130 -182 0
-339 -237 -92 403 0
-153 161 301 -371 0
-495 -471 447 415 0
447 -345 -55 -223 0
245 236 355 -208 0
-317 417 499 -316 0
-155 -45 -65 70 0
440 14 -108 247 0
-405 -276 -98 -45 0
86 463 -79 379 0
300 125 -104 -151 0
323 434 366 222 0
-284 149 19 250 0
-464 -419 -445 250 0
284 33 -138 458 0
-331 -178 230 -358 0
225 119 260 113 0
367 337 -240 -68 0
-482 -345 335 -377 0
-107 -145 -354 -384 0
252 -52 -407 213 0
-10 -184 452 134 0
-17 414 -33 -173 0
133 175 402 182 0
437 -354 -448 264 0
410 235 493 431 0
440 486 -53 -422 0
106 467 186 -81 0
-446 51 -79 -332 0
-497 213 -394 4 0
44 -137 191 -367 0
-386 272 -216 -404 0
235 -488 -437 -265 0
6 -368 -413 265 0
85 223 32 202 0
30 324 -366 -410 0
-349 359 284 -448 0
144 461 -271 -313 0
279 320 404 317 0
-208 -398 -102 452 0
379 -451 -65 267 0
-267 -175 388 326 0
124 427 -397 -156 0
-191 -133 322 -260 0
-153 294 378 3 0
290 366 458 -481 0
146 342 402 418 0
127 54 -168 -265 0
-365 -218 425 -211 0
229 40 190 -347 0
-136 -300 256 -326 0
-499 -214 422 -84 0
-361 -263 -442 271 0
484 287 -190 -472 0
-293 -149 21 -268 0
-249 15 -406 74 0
456 -146 -111 -94 0
446 23 214 247 0
244 428 369 -427 0
231 -342 230 77 0
-210 199 120 461 0
377 143 331 46 0
-363 159 -288 331 0
296 -388 -28 491 0
-62 -338 480 -273 0
-362 430 455 -297 0
-24 -252 -442 479 0
-163 -196 -132 -47 0
-131 -394 -46 79 0
-167 -93 -14 -366 0
166 -133 -193 483 0
301 -122 -253 -261 0
-238 -284 -209 34 0
138 -284 494 301 0
-156 291 -209 229 0
-192 277 87 401 0
22 1 417 -238 0
-31 -478 472 247 0
432 -324 -109 300 0
36 154 46 203 0
450 222 108 313 0
-326 -134 386 -363 0
-236 492 307 -169 0
244 -3 462 5 0
391 202 -276 -42 0
427 -418 344 228 0
184 199 -91 -430 0
-480 -99 -228 5 0
184 -99 47 -418 0
-253 496 186 -19 0
-101 -421 327 -203 0
100 338 -379 290 0
382 34 66 133 0
-141 99 435 348 0
-349 -287 453 233 0
438 -481 -166 222 0
-254 186 -265 389 0
-273 -230 162 3 0
378 116 -354 -217 0
-33 321 50 15 0
-172 -431 -129 -127 0
171 267 407 122 0
-321 -229 -297 -64 0
-435 356 -34 -401 0
321 222 -34 -53 0
-50 317 386 -211 0
197 238 -408 220 0
-401 -14 -233 265 0
-35 304 405 -431 0
-216 -247 372 -318 0
160 300 -224 263 0
-398 -75 -76 -241 0
-301 337 348 75 0
-217 177 101 -500 0
342 244 -356 355 0
-494 -172 -316 154 0
-22 -254 -113 472 0
123 -247 377 -394 0
-95 -423 4 -186 0
226 -100 324 -300 0
-146 -90 113 -454 0
-101 -12 91 -432 0
-336 -404 -454 -57 0
191 339 88 -482 0
365 -34 -61 74 0
-356 192 163 307 0
-301 -97 -438 275 0
144 447 -65 436 0
402 -241 -405 340 0
385 -261 192 256 0
-248 367 490 254 0
333 -19 -107 -113 0
-218 456 -194 -293 0
385 -44 -152 228 0
-173 -219 -231 -240 0
-13 -92 227 -120 0
-257 -263 -280 -330 0
-185 20 -280 103 0
-394 350 -433 141 0
-367 379 -279 -468 0
207 485 -208 421 0
-390 -488 77 -444 0
265 301 -403 283 0
161 434 -97 -220 0
286 -16 192 -72 0
-415 -338 428 -182 0
-399 -354 276 154 0
79 488 170 291 0
-196 -105 -486 -201 0
-493 -232 328 -459 0
-424 -353 309 -251 0
106 -120 -150 -338 0
-168 441 -466 -211 0
381 -36 200 -490 0
-419 364 -341 -244 0
-367 351 -235 142 0
-310 414 -127 -270 0
21 378 -47 148 0
406 153 -201 -314 0
-317 376 222 -235 0
358 -485 23 123 0
342 470 35 -358 0
-391 -284 63 -189 0
231 -85 -130 107 0
384 237 -196 -176 0
-59 364 -470 -70 0
281 -337 125 366 0
-88 -430 10 -311 0
40 -344 -391 -6 0
-18 458 346 273 0
329 -340 -367 -338 0
3 25 -396 -194 0
47 -9 -216 15 0
113 491 -452 -50 0
-213 263 -56 -418 0
-278 -203 -481 -220 0
-206 -335 -162 7 0
-333 -320 -189 23 0
53 365 -275 406 0
-308 167 324 -357 0
90 326 390 -453 0
-10 312 467 300 0
361 7 -120 11 0
-388 -125 -318 -41 0
105 329 20 122 0
169 69 143 163 0
-332 417 -148 -385 0
277 -28 465 470 0
-312 -447 -196 267 0
36 -489 -99 -27 0
304 -282 -426 408 0
-160 -85 -370 -102 0
-230 496 -326 104 0
-204 194 86 242 0
-420 -489 407 247 0
-472 154 -305 -276 0
233 -146 -193 -288 0
-80 470 98 -3 0
474 -213 -482 203 0
-302 37 -210 454 0
-100 391 224 491 0
251 326 353 189 0
125 245 18 472 0
-331 76 -134 310 0
-488 340 431 83 0
204 362 -301 -499 0
-425 219 130 -355 0
158 376 -211 386 0
-398 409 177 -417 0
-158 -4 87 -418 0
-214 -336 -148 -376 0
-250 94 -258 -486 0
-384 94 415 -389 0
468 -320 -56 -445 0
-33 -176 16 -300 0
137 385 -490 -4 0
406 4 -193 -309 0
-388 173 -310 -220 0
-123 482 185 341 0
413 -52 2 234 0
14 309 63 -445 0
232 317 352 -338 0
-327 491 483 417 0
-377 -167 348 228 0
179 -220 481 477 0
52 376 198 151 0
-402 -439 -367 259 0
281 448 -240 87 0
125 109 -88 386 0
15 83 -476 -168 0
-244 -488 460 344 0
47 408 355 171 0
330 176 -194 467 0
288 -495 -439 -224 0
46 175 -380 -304 0
437 -161 -489 195 0
434 199 217 -164 0
-340 -309 303 -114 0
-418 483 -152 -429 0
383 -341 -435 411 0
353 -64 141 -435 0
361 -495 193 -31 0
376 -479 415 -116 0
250 373 201 154 0
281 201 173 -217 0
271 373 145 -357 0
166 -386 406 -298 0
-336 -84 296 -71 0
412 -384 101 -377 0
403 -440 76 193 0
-50 -183 499 243 0
304 -223 -497 -77 0
251 155 -353 306 0
408 344 338 -46 0
-335 -228 -189 6 0
261 116 -12 301 0
-407 304 -93 197 0
51 167 -33 366 0
11 202 -285 419 0
300 -276 366 420 0
460 -61 93 442 0
-63 -21 66 295 0
-18 44 -64 260 0
-337 1 128 -154 0
-274 -228 72 296 0
311 276 -262 -108 0
-73 -154 439 427 0
-143 66 -374 319 0
84 205 234 -43 0
-105 37 323 376 0
289 -337 332 -421 0
404 -223 -195 14 0
-351 -281 209 34 0
-75 -445 409 -116 0
-488 54 401 474 0
-414 251 -49 -271 0
-51 460 -25 88 0
348 496 -404 273 0
133 5 -352 263 0
137 -28 471 372 0
-215 -362 -235 -94 0
488 220 -267 483 0
45 486 157 -209 0
123 -484 -48 85 0
414 448 6 -493 0
255 264 -351 347 0
467 426 382 -4 0
379 339 487 472 0
311 230 494 -87 0
39 188 -430 -69 0
192 -497 58 174 0
-61 -149 154 248 0
112 473 157 -476 0
-238 -457 317 -435 0
182 -55 -3 -180 0
252 -102 -44 -271 0
-80 -394 -337 -129 0
-94 -275 416 -138 0
-182 383 -223 -3 0
21 69 -203 -216 0
-246 -492 -341 137 0
66 -167 385 392 0
423 200 -68 -57 0
-7 393 -351 122 0
-5 -223 -246 149 0
-374 -262 -96 128 0
-342 421 -220 102 0
313 93 -97 -438 0
-20 -141 -99 476 0
195 209 -269 -157 0
-32 -262 -219 330 0
365 -215 -127 164 0
-165 109 -147 -242 0
-252 187 172 156 0
67 170 185 380 0
122 -333 -142 108 0
309 62 22 -301 0
229 474 -51 -39 0
-390 -104 -274 370 0
457 450 -389 -437 0
-323 -368 61 467 0
-405 12 -86 307 0
-32 407 -498 356 0
-263 498 39 -85 0
-311 140 106 -95 0
476 405 -263 234 0
-152 -363 138 -283 0
-328 -76 483 -453 0
-128 422 108 274 0
167 -43 -485 362 0
151 167 -30 321 0
91 132 498 9 0
-55 370 382 353 0
-283 -106 419 227 0
-386 203 -80 229 0
-48 254 -93 -236 0
-374 -93 -332 -145 0
-312 -97 36 74 0
52 371 270 -71 0
11 57 -424 -7 0
43 -138 74 481 0
-55 278 -377 -419 0
-289 -457 -228 -418 0
-355 137 -322 -279 0
-262 454 -429 -213 0
-76 181 -336 147 0
-422 -462 -58 252 0
-183 40 316 171 0
310 78 92 -220 0
342 -352 -155 320 0
339 189 -478 -136 0
-478 -77 -399 336 0
-500 -245 418 -35 0
-166 -66 -94 393 0
-212 309 407 -326 0
215 282 255 -276 0
298 367 216 270 0
121 -186 2 105 0
-472 57 31 467 0
151 236 74 -428 0
-424 115 29 -383 0
-14 357 495 -218 0
-429 -305 -446 -81 0
-292 -426 417 214 0
-358 -486 154 241 0
147 -57 80 31 0
6 203 427 217 0
471 -293 -257 157 0
268 -194 -487 -65 0
422 -382 500 -287 0
-335 -329 -208 -424 0
-139 56 -54 -40 0
-84 -278 55 -34 0
-104 -327 476 -17 0
-405 248 -24 -25 0
-145 491 204 257 0
-360 346 -50 170 0
-77 13 301 -408 0
78 -350 238 41 0
414 -349 335 73 0
374 -312 334 -268 0
-185 320 439 -482 0
107 313 311 -39 0
-8 74 393 446 0
-256 -49 -233 161 0
181 -46 37 92 0
391 449 227 -333 0
-187 440 147 -206 0
-263 -433 -320 -488 0
450 449 350 -22 0
421 -288 -5 -80 0
-38 -115 -199 448 0
-461 419 239 56 0
-394 -222 103 -206 0
-360 -380 -244 -59 0
-328 110 -164 291 0
-186 -405 -221 243 0
-217 -139 -130 -326 0
-448 -365 232 -447 0
-28 48 -459 -462 0
483 215 247 -244 0
468 355 293 -200 0
-371 342 297 316 0
-423 378 376 -163 0
163 -59 406 497 0
483 427 439 -65 0
382 -97 -216 -357 0
488 -98 498 -348 0
460 158 258 -420 0
-211 181 -425 278 0
235 -220 -192 -91 0
338 353 349 224 0
-51 45 413 -429 0
255 -384 -385 320 0
-17 -342 -149 -437 0
-101 439 241 -487 0
421 -331 -361 -402 0
-146 138 451 -338 0
-124 -3 -461 -466 0
419 -266 420 380 0
-124 285 499 201 0
296 220 -66 481 0
-265 82 224 119 0
402 -201 432 391 0
-105 48 -14 224 0
279 -472 498 41 0
-325 324 -399 -184 0
431 -126 -372 -400 0
-43 479 74 -322 0
-475 -306 -63 -55 0
-433 -186 468 -430 0
-250 -492 321 40 0
-231 414 83 93 0
-438 -17 61 500 0
-3 -82 268 380 0
-266 -263 390 -79 0
71 -113 -43 -373 0
48 -179 363 -283 0
-485 -205 473 99 0
493 202 -53 -299 0
-370 250 -222 -453 0
-56 -311 197 220 0
231 -86 -456 18 0
450 -331 -487 495 0
-220 -405 -96 -184 0
161 63 -5 164 0
-165 -461 -120 -288 0
288 143 367 312 0
-331 216 -350 -388 0
-253 -256 -24 -141 0
-197 122 296 11 0
467 -237 146 68 0
-21 -173 331 9 0
-141 163 -386 178 0
-202 153 357 233 0
-481 317 -53 15 0
-442 -353 371 224 0
418 463 -276 3 0
-57 -25 485 156 0
-139 -358 -88 474 0
386 -300 -455 -436 0
271 124 -296 245 0
-116 -48 136 393 0
-338 -332 377 -439 0
7 -344 -111 -240 0
303 390 -271 -264 0
79 -435 -259 55 0
445 -318 -263 -104 0
158 -488 446 296 0
-124 -9 458 -236 0
-136 -61 -475 282 0
-261 -171 28 226 0
-217 100 151 -97 0
222 56 -349 -26 0
-19 -295 -137 123 0
-367 208 201 -202 0
-106 -88 403 105 0
49 -95 -258 465 0
-123 -88 162 -349 0
-7 -342 -243 -220 0
348 390 437 -5 0
127 242 57 24 0
-269 -258 -86 387 0
232 -252 -377 -180 0
7 424 181 155 0
-462 432 306 -248 0
211 -439 -113 338 0
-357 -499 221 -185 0
56 495 141 450 0
449 -270 -90 136 0
-484 142 -159 98 0
222 408 -233 291 0
-256 -475 351 76 0
-341 84 -156 -250 0
-145 -423 -304 64 0
-1 -26 129 71 0
-394 -288 80 -489 0
-300 -471 -42 149 0
327 -198 -217 -205 0
160 -89 289 224 0
103 -129 -70 214 0
-322 237 -280 -94 0
227 356 -161 -258 0
-216 493 211 -237 0
-387 -72 315 -465 0
-279 461 -290 -450 0
4 -237 -414 -391 0
425 333 55 171 0
443 32 63 380 0
265 -74 288 380 0
80 155 322 160 0
-103 59 35 -1 0
54 -243 13 -427 0
248 95 420 121 0
-440 337 -316 64 0
337 124 -88 -262 0
-342 52 -492 302 0
-55 -238 -214 417 0
6 298 156 -18 0
-465 182 -493 72 0
184 -257 439 -441 0
-33 90 -336 78 0
403 -72 -143 402 0
-331 248 193 493 0
-398 -338 270 -133 0
-317 425 -207 -35 0
-55 256 479 348 0
376 -408 122 54 0
216 -473 33 -32 0
391 192 -311 324 0
194 -69 -327 294 0
-116 104 380 -83 0
-13 -323 -492 -343 0
397 -209 291 280 0
-373 -329 271 255 0
183 317 -461 287 0
-448 37 -292 -41 0
-27 308 -277 170 0
200 -361 -184 35 0
124 -437 266 478 0
457 57 299 -242 0
216 -134 -103 172 0
169 -474 -388 340 0
289 464 -313 -360 0
214 307 -379 -314 0
-371 -22 -54 -19 0
-401 436 -449 498 0
-101 274 -312 -441 0
-199 393 194 -357 0
-61 -460 -316 -463 0
-119 48 302 6 0
291 -24 -411 -8 0
-225 93 145 23 0
67 311 -204 246 0
106 254 362 -377 0
155 483 -188 400 0
-164 -358 -278 258 0
249 144 41 -105 0
284 108 -63 -191 0
226 -333 392 -233 0
302 -197 154 -424 0
-10 -442 -196 197 0
-273 27 339 157 0
387 -458 173 -473 0
15 175 372 425 0
386 30 414 -56 0
481 274 238 -218 0
-196 240 -382 474 0
141 -44 -128 395 0
186 138 338 -129 0
-292 -339 -165 -429 0
-239 19 -495 -184 0
481 -41 -142 -460 0
393 -403 142 -133 0
-317 -336 26 120 0
297 -163 22 -284 0
132 -9 348 433 0
-180 56 -40 -260 0
-191 425 422 -349 0
-168 -311 404 -185 0
-499 -151 319 16 0
14 55 312 109 0
-298 365 -177 482 0
196 391 333 41 0
-295 323 281 376 0
27 -311 -242 338 0
-151 467 -125 -169 0
-384 498 60 -355 0
181 287 259 -40 0
215 -118 292 424 0
-209 -346 -300 -341 0
42 210 216 259 0
-461 -93 -449 233 0
-477 -241 -381 52 0
38 -68 -264 -444 0
-357 -286 124 -365 0
-312 316 -56 -370 0
210 -323 -231 -380 0
94 371 -393 302 0
-304 -190 -346 333 0
-144 -484 -396 50 0
269 -297 -261 433 0
489 74 22 -417 0
-143 -295 -451 -316 0
-250 225 -115 454 0
-55 -474 119 342 0
-87 15 307 -463 0
-251 -427 422 -14 0
-228 267 65 426 0
-62 -228 -456 -222 0
343 60 -496 -182 0
-81 260 172 -142 0
-353 -162 457 474 0
98 431 286 339 0
126 -71 -301 -193 0
-249 -417 96 -376 0
-265 -439 -371 384 0
364 92 20 -215 0
179 248 272 337 0
343 249 251 -408 0
113 58 -494 -452 0
-127 340 218 -60 0
204 361 66 397 0
-352 -121 15 -149 0
288 -396 166 -134 0
-134 -468 28 -138 0
230 210 114 -294 0
-496 315 313 -169 0
-195 -47 400 -361 0
26 266 108 -186 0
-368 -118 -149 411 0
128 482 7 19 0
-406 -249 22 81 0
18 -140 -384 64 0
-449 139 442 44 0
11 8 -381 426 0
201 100 -426 311 0
-155 141 235 -104 0
-220 -48 -114 496 0
260 126 196 9 0
366 -56 232 -115 0
-245 -289 56 -330 0
288 87 -107 -443 0
430 243 -268 -371 0
211 -160 380 173 0
-447 3 -138 -354 0
-492 -334 121 165 0
-376 -42 -472 -54 0
-267 384 -63 86 0
254 -88 321 -412 0
5 152 61 -223 0
166 -315 -456 191 0
-412 315 -488 -366 0
170 475 -383 369 0
-243 -6 163 -214 0
-360 -97 -103 356 0
305 81 -35 -180 0
99 -141 146 -421 0
393 207 -479 131 0
-53 375 -111 144 0
331 393 197 170 0
378 -447 -316 -343 0
111 -47 -476 -412 0
-40 459 -497 -27 0
-155 -257 390 61 0
-182 -160 430 -268 0
-86 -485 -325 -427 0
-356 404 129 -351 0
444 -188 -438 239 0
-449 -472 481 -98 0
-227 -185 -270 -100 0
130 -258 -472 -7 0
-23 -357 361 -130 0
368 -475 -242 312 0
-385 -280 414 -54 0
-377 -91 446 -436 0
-327 364 32 -161 0
315 378 -9 171 0
-464 -301 370 -484 0
-342 343 -32 -34 0
89 228 -23 142 0
-432 429 -482 -2 0
429 -357 45 -290 0
45 -96 -163 -303 0
327 192 -236 42 0
483 462 -443 -98 0
147 -92 143 -72 0
103 -91 -152 133 0
-179 396 329 -268 0
428 -300 198 -80 0
-416 350 408 148 0
407 -138 -47 -263 0
-60 -265 338 -324 0
-194 338 302 462 0
-5 82 -216 244 0
-157 -84 240 -280 0
-295 356 -223 -375 0
-173 248 348 206 0
-462 475 260 -56 0
15 84 263 86 0
102 -488 -498 291 0
497 47 -159 -406 0
1 -338 -76 -103 0
-105 224 47 -371 0
-245 82 177 52 0
343 193 -426 -238 0
391 479 69 205 0
-218 -306 202 274 0
114 -454 -312 92 0
313 307 -385 -204 0
-109 155 -223 -48 0
-199 346 -421 -247 0
-350 -265 428 -55 0
-442 -208 412 -414 0
233 -6 249 -335 0
133 380 -325 -60 0
243 -365 172 433 0
273 -389 -197 446 0
303 133 -102 -264 0
-145 -21 63 445 0
-130 218 173 -346 0
-183 214 9 -229 0
-19 -273 -379 203 0
-325 253 221 -458 0
423 463 -428 -478 0
191 20 76 -312 0
372 -41 -173 -475 0
383 -132 370 335 0
407 99 293 134 0
356 -410 26 -192 0
353 -399 -96 -142 0
-146 140 3 -209 0
237 -307 -405 500 0
114 33 -314 -148 0
-305 169 -278 -200 0
422 -228 78 -237 0
200 131 -207 -17 0
177 -43 -107 -383 0
346 -240 -16 -80 0
-392 12 385 -499 0
276 -68 -194 -311 0
57 293 149 92 0
-282 210 -181 385 0
323 55 341 453 0
-273 201 -116 440 0
-81 -474 448 91 0
-336 89 -350 -465 0
-97 326 15 -317 0
-293 375 -210 485 0
-351 47 488 -190 0
262 -443 99 -436 0
-242 -480 -365 -472 0
296 -237 -236 -126 0
237 257 329 57 0
-126 237 370 -493 0
-267 -241 -442 198 0
62 367 -398 -311 0
-372 31 150 -416 0
367 -475 -262 -323 0
135 -389 -423 -297 0
174 -73 -468 125 0
-38 -235 -461 -364 0
228 170 404 231 0
-76 -268 -148 -14 0
484 -367 -82 -291 0
-381 -413 -356 66 0
-15 436 -109 299 0
-382 446 265 208 0
301 -437 257 161 0
-446 -269 247 -90 0
-116 159 106 -115 0
101 183 -256 236 0
420 401 -404 -269 0
321 -51 488 169 0
276 -447 41 -497 0
409 379 -94 354 0
91 -21 -312 137 0
33 -464 -463 68 0
298 245 -238 51 0
-101 -245 60 -227 0
250 154 -292 5 0
399 330 -100 -302 0
-387 -209 308 139 0
488 -331 -154 136 0
159 321 -226 -58 0
-499 -261 -241 -254 0
474 442 -227 176 0
391 -119 110 -158 0
154 -475 -313 108 0
403 -88 437 81 0
335 -305 404 -214 0
-439 -428 -156 190 0
-231 -158 218 -289 0
496 210 182 -331 0
361 -104 -107 -339 0
405 -196 -167 286 0
-439 -141 -55 39 0
-241 488 498 485 0
250 -128 -144 -311 0
-276 -190 225 -473 0
-397 -376 -212 -423 0
46 225 -126 168 0
150 -354 12 72 0
161 -491 437 -185 0
-240 117 236 -186 0
-383 -478 -12 -72 0
25 426 -271 -31 0
17 492 -259 448 0
325 35 377 39 0
-409 263 434 436 0
-385 -38 -393 351 0
-379 78 -334 170 0
-355 -379 420 -486 0
-425 -200 -10 -5 0
-346 394 168 273 0
182 -458 451 -367 0
93 52 14 274 0
-489 -36 -168 -446 0
218 139 -120 480 0
484 -226 64 428 0
-107 -195 26 229 0
64 48 497 -90 0
108 -62 482 -251 0
-108 -47 -410 -260 0
-4 195 -412 216 0
429 -34 223 -485 0
-330 415 -200 449 0
-166 24 -73 -434 0
-356 241 391 20 0
-191 -317 213 422 0
-380 415 343 -93 0
-105 157 207 -321 0
-14 170 -15 -456 0
277 -194 -391 -307 0
-115 -48 215 34 0
275 226 -69 -439 0
463 -132 66 166 0
245 -253 -384 -426 0
-483 -74 -116 338 0
-54 128 -116 129 0
343 303 267 -265 0
217 192 -339 75 0
-198 -324 -25 -407 0
-407 122 -83 -204 0
322 -446 -419 498 0
-280 226 61 -382 0
457 -96 131 175 0
343 -439 -176 391 0
-494 -279 -65 49 0
-152 -65 448 -178 0
-444 498 259 -94 0
-431 349 -114 398 0
78 289 -441 -272 0
-485 272 86 192 0
116 432 477 -385 0
104 -143 -26 492 0
-216 458 -244 -240 0
-363 285 343 -160 0
-387 -211 72 74 0
125 -201 -403 82 0
-37 116 -494 486 0
-484 345 78 -106 0
-61 267 -160 269 0
153 -421 -64 278 0
-467 369 -175 449 0
58 321 239 219 0
-389 150 116 268 0
186 124 446 -436 0
-327 54 -443 -395 0
261 169 -215 -342 0
-413 249 125 -300 0
400 424 -363 250 0
474 342 196 22 0
295 -49 61 495 0
216 -418 202 368 0
294 443 268 20 0
343 -465 14 -111 0
472 212 -411 15 0
-177 -181 -499 -495 0
-326 135 394 407 0
380 -206 -386 -179 0
181 316 -276 -379 0
-469 370 47 328 0
-104 -136 -439 -363 0
-82 -492 -87 166 0
329 -287 152 -388 0
48 47 365 -307 0
-175 -273 182 204 0
449 455 -409 -151 0
-423 21 -126 -281 0
-356 113 -126 -449 0
125 494 -11 440 0
291 99 212 96 0
199 -383 134 -362 0
-187 461 -474 480 0
-165 441 -424 360 0
402 -260 363 -244 0
179 368 -360 -331 0
-429 28 -236 317 0
-12 -287 230 -333 0
350 182 34 489 0
366 307 252 -221 0
232 -159 276 357 0
485 209 -74 -393 0
-313 -28 365 387 0
272 -212 374 83 0
92 -428 -93 -16 0
485 -207 -294 359 0
-71 -434 176 94 0
-256 -47 95 134 0
174 -232 385 49 0
-31 350 192 -49 0
197 157 15 410 0
-97 -326 -318 256 0
468 80 308 192 0
91 -260 -77 417 0
491 -407 -482 -62 0
93 -303 266 86 0
472 173 -481 -233 0
-60 -343 -284 34 0
-97 407 207 22 0
466 -338 363 387 0
165 467 -270 289 0
-103 -145 165 -70 0
-223 -194 43 252 0
-157 255 -403 395 0
97 485 46 -158 0
-161 379 -25 -274 0
276 -27 422 423 0
-261 -190 -349 -358 0
114 -365 164 38 0
24 -473 -196 106 0
-338 -417 -469 -426 0
-470 429 206 -23 0
473 217 -349 293 0
-335 -378 468 -140 0
432 -462 -98 419 0
-22 357 -393 -230 0
-82 462 -406 251 0
490 -349 -367 477 0
-134 56 -390 -62 0
434 -255 -103 -66 0
-20 427 -199 -95 0
-190 225 379 74 0
499 -97 -394 -108 0
-441 -487 129 -472 0
195 -79 485 -150 0
-370 225 13 -447 0
-83 -74 -281 494 0
9 -317 -369 87 0
-351 -120 -4 196 0
-439 115 -391 322 0
-244 480 -293 331 0
-122 350 252 -314 0
461 -79 -233 275 0
494 -496 -199 132 0
74 22 -236 -211 0
431 -321 -181 107 0
-228 -488 -199 238 0
-106 -126 112 365 0
317 187 -461 238 0
-110 202 -73 241 0
-397 -446 320 -212 0
-197 -480 265 -222 0
342 89 140 382 0
-411 -102 78 211 0
250 162 313 -478 0
-50 403 34 -44 0
-47 161 477 -462 0
-34 186 -320 -466 0
90 -149 156 -52 0
-61 273 467 317 0
-144 -354 435 463 0
50 -387 -21 70 0
301 353 -419 186 0
497 252 485 344 0
-36 -91 -70 320 0
405 -492 343 101 0
-43 182 309 410 0
187 436 130 -99 0
164 464 -86 27 0
173 21 140 -384 0
17 67 -447 -475 0
-464 241 195 -199 0
-412 263 -438 -402 0
-134 -283 -99 251 0
413 342 -468 -164 0
-391 -55 125 -39 0
45 443 -39 5 0
37 80 299 -321 0
-341 -55 314 63 0
-96 -47 368 -488 0
368 -41 199 165 0
-254 310 362 96 0
-227 95 -260 4 0
-295 499 -97 359 0
388 117 84 203 0
147 112 219 129 0
496 -350 -129 -145 0
376 -31 318 387 0
-7 382 346 46 0
311 348 -492 -34 0
-416 -246 190 256 0
117 -301 88 -22 0
-408 434 -484 -498 0
378 385 198 -215 0
-446 -324 77 205 0
-78 -304 -485 -95 0
-102 12 255 -201 0
-98 -250 311 -371 0
-341 31 181 493 0
-73 -121 -266 483 0
-324 82 174 323 0
-272 145 -175 372 0
-243 -33 10 229 0
466 447 -463 -161 0
175 296 407 170 0
294 498 467 -118 0
-289 241 -456 -10 0
-165 42 271 252 0
-35 231 200 -399 0
-399 -31 -243 127 0
288 -75 -402 140 0
-103 422 416 -331 0
32 377 -454 -100 0
-359 -420 -437 -6 0
-330 391 216 -41 0
-196 -285 81 -305 0
-102 362 -311 -233 0
-27 -445 168 -283 0
-14 -322 223 331 0
330 -145 166 290 0
366 -68 -255 -33 0
-366 -121 -48 -387 0
-36 -253 206 280 0
-281 -422 46 417 0
117 -123 29 331 0
-246 -22 113 389 0
166 -199 388 -325 0
343 -366 357 -213 0
299 252 -4 179 0
85 204 109 -78 0
-285 -192 262 -199 0
-168 -460 -134 202 0
-334 -344 -263 395 0
-381 478 448 106 0
346 -110 -454 304 0
-291 456 -453 -432 0
-93 441 171 -106 0
201 -309 386 85 0
-342 -439 -481 -128 0
-26 -439 -6 485 0
-493 82 50 28 0
191 -39 -144 -214 0
73 135 234 -477 0
326 382 488 -350 0
-58 45 372 -121 0
-12 360 -289 -246 0
-194 -16 -20 -255 0
460 23 337 33 0
104 411 -137 13 0
415 1 -333 23 0
251 -406 -119 367 0
-234 421 -242 279 0
-75 -165 -377 -328 0
178 393 -150 76 0
185 493 -222 -45 0
239 -231 -386 277 0
-441 321 75 307 0
-294 72 -418 -406 0
58 257 -279 22 0
483 85 -379 -117 0
429 409 192 -281 0
180 -384 209 -353 0
-428 -356 459 386 0
-56 254 -74 -469 0
-423 108 -278 -327 0
62 -107 -96 424 0
-217 484 -184 -339 0
107 -156 220 -318 0
-252 -17 -256 164 0
-386 276 395 51 0
-351 -252 14 -195 0
279 48 43 -126 0
384 -173 -124 310 0
-438 -232 -111 315 0
-400 15 -479 260 0
199 -411 474 275 0
-252 -90 -462 -232 0
57 -352 -80 -496 0
398 382 -414 -335 0
175 -444 -350 299 0
-467 60 52 85 0
225 -255 188 407 0
-326 -279 55 -215 0
34 -45 -135 450 0
-465 -476 449 71 0
229 -338 280 192 0
-299 -212 -60 287 0
201 -6 191 -31 0
272 -5 -156 -451 0
-110 -97 -340 244 0
-322 278 440 -412 0
390 -35 -245 263 0
212 430 -321 186 0
-22 -446 165 -400 0
-231 311 -429 444 0
261 456 -209 331 0
255 -396 39 222 0
-398 -75 -396 329 0
470 -175 -156 429 0
262 250 198 388 0
310 -307 -339 -403 0
176 -273 -265 -316 0
-148 305 263 117 0
179 498 -157 -99 0
218 343 -338 97 0
152 98 -352 -186 0
267 -89 -61 371 0
325 426 -173 -94 0
-368 -139 -478 -291 0
64 -495 -193 417 0
131 476 254 233 0
216 102 -137 -27 0
-224 -199 161 62 0
-22 434 -36 -143 0
-381 352 -217 -105 0
-320 -369 142 146 0
137 -476 283 -182 0
113 -88 413 495 0
47 -293 -380 -315 0
-433 -209 -114 -124 0
-55 2 123 -344 0
-110 119 -52 434 0
-197 436 -315 385 0
252 -224 -405 449 0
-430 227 311 106 0
-194 -87 -404 -207 0
149 -461 -119 195 0
-125 331 -358 -34 0
196 11 -252 -224 0
118 -138 -188 467 0
331 265 307 -272 0
390 -118 47 -363 0
-41 -269 478 -131 0
-469 96 -118 -210 0
27 294 336 -401 0
281 -241 483 -217 0
-365 40 -35 -396 0
237 -284 390 -189 0
5 167 -438 88 0
-30 -202 -70 86 0
-428 -189 -294 -401 0
128 -83 -328 -311 0
236 -271 410 -251 0
269 -239 493 332 0
384 -208 385 -129 0
413 -19 -106 38 0
-212 -196 -193 -154 0
-223 397 327 385 0
-333 -407 -155 -203 0
-250 205 -239 -365 0
27 126 -486 -75 0
239 -466 198 -455 0
263 283 -245 -21 0
-100 159 -473 260 0
-139 31 -13 -261 0
409 -314 -236 178 0
-64 453 -225 389 0
-374 384 290 -260 0
339 -366 -226 375 0
-48 -316 -197 142 0
100 215 -292 214 0
-470 -108 1 34 0
113 -240 -469 -85 0
461 176 316 -373 0
286 -281 456 462 0
342 350 428 367 0
-126 -116 418 -12 0
499 -371 208 -27 0
76 285 -115 433 0
475 -51 -358 278 0
154 42 125 84 0
-475 -456 -30 224 0
-171 -481 190 61 0
-203 -302 -110 208 0
173 82 -307 -168 0
-378 5 77 277 0
-358 -332 -78 27 0
188 -348 352 -471 0
-458 159 170 52 0
-421 -473 99 -405 0
304 150 -316 -429 0
311 437 -134 81 0
353 146 17 202 0
-184 488 -261 157 0
121 -407 -434 159 0
19 -41 31 -301 0
-371 -38 -145 -395 0
210 63 477 -330 0
364 -108 -459 -243 0
26 -17 431 -437 0
495 -204 402 364 0
363 217 338 -162 0
-446 -402 85 -489 0
22 -453 -72 -123 0
-93 -214 -20 395 0
173 2 -54 -248 0
349 -338 -440 378 0
-303 314 475 -101 0
369 303 -281 -149 0
209 -302 322 495 0
-469 -453 312 -293 0
-154 -457 334 -437 0
-136 3 -272 -118 0
221 -25 491 39 0
214 9 257 -445 0
308 -340 27 -255 0
60 438 -121 474 0
-103 8 351 -220 0
-67 477 384 -375 0
-464 -219 105 -374 0
-278 355 281 328 0
2 489 123 34 0
-59 392 232 -173 0
-63 -247 343 -315 0
199 413 97 280 0
497 -407 -393 45 0
354 274 -100 -246 0
-200 406 388 -222 0
98 318 -327 248 0
117 -428 337 -479 0
-329 -189 -102 -461 0
-341 479 -191 -333 0
-238 44 69 432 0
243 -254 284 -283 0
-428 327 -163 126 0
29 -481 -154 -341 0
-79 -144 175 -436 0
-158 379 -154 209 0
446 71 -477 -269 0
136 -394 -171 163 0
119 26 142 160 0
416 365 -282 479 0
153 -52 459 -207 0
-337 -171 138 380 0
-55 -457 245 -22 0
303 -482 -288 459 0
292 -359 -444 54 0
87 378 491 -421 0
268 449 -140 296 0
31 -221 109 -314 0
208 -499 -303 211 0
64 -362 216 -131 0
-98 -383 130 -354 0
-344 128 68 365 0
-351 203 69 495 0
-368 -57 -425 -357 0
371 -332 -403 64 0
-349 141 -228 -340 0
446 -341 440 -485 0
-130 2 222 238 0
-269 -149 -105 -212 0
394 -8 -243 -403 0
115 231 103 -353 0
-246 113 225 -464 0
486 -283 261 329 0
354 51 140 -442 0
-291 -491 454 55 0
343 477 285 -439 0
255 -271 2 77 0
-291 -175 -1 247 0
129 357 412 140 0
-290 289 183 -50 0
440 173 -183 -242 0
-288 9 -354 40 0
105 -240 212 274 0
226 -368 -70 -114 0
471 301 210 62 0
48 -175 -473 122 0
-383 -323 -481 -390 0
388 -357 374 4 0
455 -170 52 -46 0
357 179 -479 183 0
-322 -293 -11 342 0
-376 -92 -101 424 0
-116 317 -69 17 0
451 -390 -154 428 0
-243 194 4 88 0
-56 -44 -392 -81 0
417 86 137 366 0
478 303 461 -493 0
-305 -273 -339 291 0
228 143 162 134 0
101 -208 -152 193 0
-408 356 65 462 0
287 246 203 -466 0
93 -276 -449 119 0
279 -453 38 -124 0
134 -171 -282 70 0
72 -412 -405 -113 0
-217 370 -325 280 0
434 173 16 17 0
-442 -415 371 16 0
-42 43 -353 98 0
332 191 -30 -404 0
-181 161 195 345 0
134 82 44 -280 0
-252 -268 467 394 0
-404 22 -161 -195 0
26 -2 339 -134 0
-371 -265 -141 -272 0
409 -138 -262 -117 0
88 402 -296 -193 0
209 107 -124 -211 0
9 396 320 -399 0
-34 -32 -138 411 0
64 -456 285 -469 0
439 -330 91 281 0
194 -368 -392 -97 0
34 -73 -357 205 0
-343 -342 -375 -158 0
368 67 -189 -370 0
399 129 -43 237 0
200 81 182 -485 0
207 -404 118 -370 0
-492 -444 -467 -374 0
144 442 149 263 0
-396 116 375 -56 0
-142 170 372 498 0
175 20 -149 -352 0
111 -107 497 392 0
453 363 63 -203 0
-365 308 -233 -270 0
-500 102 -124 -304 0
330 166 116 21 0
471 385 -314 -390 0
-237 492 257 440 0
6 467 -95 -107 0
-399 213 58 -282 0
194 -171 -242 327 0
-62 -492 372 -465 0
-189 -313 -406 -178 0
64 -446 270 -328 0
204 272 245 -176 0
88 418 371 -81 0
-232 -141 172 173 0
439 -375 151 67 0
-323 -11 -399 -406 0
405 -381 -24 266 0
-10 481 22 -484 0
-200 204 -453 -312 0
234 -38 -165 -482 0
460 175 -183 27 0
249 321 -434 -218 0
269 -426 -136 149 0
3 -407 -271 230 0
468 -282 -378 458 0
-315 -371 64 -28 0
421 25 -260 -189 0
294 -94 -479 9 0
207 388 -307 362 0
414 193 446 400 0
382 374 -347 348 0
75 275 402 -188 0
290 53 151 11 0
439 -100 489 90 0
115 -151 400 73 0
-29 209 -319 359 0
235 392 -214 -498 0
288 -483 371 117 0
186 -333 125 461 0
-429 -420 -146 424 0
73 -462 356 290 0
-76 208 -303 -391 0
-402 -282 -196 294 0
-8 288 247 -415 0
98 414 271 -161 0
99 -398 137 -205 0
-261 -140 321 -461 0
115 -1 -4 342 0
33 -29 -60 -427 0
99 417 -314 172 0
193 -271 29 -314 0
-378 -165 28 -233 0
-299 -487 227 -329 0
-144 -139 -9 -459 0
-366 -483 230 454 0
306 -71 177 10 0
423 243 473 197 0
-35 394 399 -135 0
-497 -100 -102 104 0
-184 367 -477 -88 0
-475 41 238 6 0
-41 -309 -84 1 0
-343 163 -68 -240 0
112 -230 -39 -457 0
-493 -87 -443 297 0
-499 419 -49 -221 0
-129 -426 -53 -204 0
-405 -256 -342 -263 0
48 450 -252 458 0
-134 266 -477 499 0
-402 375 352 -311 0
-422 277 125 449 0
210 -15 174 -118 0
360 -302 279 -369 0
245 -359 32 207 0
-414 76 -441 -406 0
-338 -431 88 -93 0
-202 348 448 -338 0
54 352 136 208 0
-90 -38 -293 72 0
21 -286 -303 274 0
-148 -402 280 -445 0
170 409 18 488 0
500 369 -307 -367 0
452 311 173 434 0
146 -178 232 321 0
-356 -336 226 -47 0
200 245 -101 277 0
141 -195 400 40 0
-254 -313 273 253 0
-259 255 -368 433 0
253 -384 20 -405 0
-96 -350 -321 -406 0
459 -445 185 387 0
-292 -20 16 345 0
-176 437 -192 138 0
101 -72 181 424 0
69 -350 -273 379 0
444 482 100 -280 0
85 -134 41 -351 0
478 -248 92 -468 0
485 -302 114 445 0
53 115 -441 -482 0
-488 -331 251 -266 0
313 -165 -388 -250 0
157 322 320 -62 0
427 -58 -468 247 0
171 -298 -121 -138 0
-46 167 -151 -233 0
-89 -188 318 454 0
-50 -122 -409 219 0
488 434 -77 357 0
-45 -19 398 182 0
357 303 269 243 0
-4 140 185 67 0
206 84 456 71 0
214 30 -490 167 0
276 -227 144 153 0
380 -458 343 144 0
408 444 -163 -404 0
491 315 -467 -61 0
70 -478 436 -4 0
-118 301 -332 450 0
-453 -424 -60 -410 0
247 -18 268 105 0
146 -156 436 267 0
252 74 -256 -494 0
327 404 -226 -369 0
188 434 -264 379 0
36 270 112 -413 0
-69 98 429 33 0
-321 157 320 48 0
-213 135 -251 82 0
393 242 -207 -266 0
-180 246 238 -165 0
70 -195 -80 -442 0
419 -398 438 -343 0
53 201 28 282 0
-90 -33 235 -352 0
-290 336 -299 -495 0
80 -296 -490 -291 0
-52 376 -219 -410 0
284 -282 -74 122 0
405 -296 439 -458 0
-63 251 -372 -331 0
-202 -149 127 483 0
488 -397 256 313 0
-435 441 -299 -225 0
170 127 342 462 0
110 -252 363 459 0
-266 125 67 -77 0
187 -204 -374 -405 0
-23 136 390 -284 0
-258 260 443 292 0
-450 -191 342 264 0
409 429 -473 -385 0
155 121 473 199 0
57 -236 -35 178 0
-461 -476 445 48 0
-374 -483 -301 -384 0
-335 445 -377 -262 0
213 -241 43 -108 0
204 -25 -325 78 0
-474 359 -492 -236 0
-395 -382 -345 46 0
-22 -62 -317 370 0
-271 390 225 -478 0
-151 -293 -99 -221 0
-334 449 -341 416 0
-91 52 -47 146 0
473 -173 -441 5 0
193 -66 9 431 0
180 370 195 -430 0
477 -110 367 342 0
-422 -9 -398 -50 0
479 -184 282 -168 0
-434 14 -133 -483 0
-247 477 -28 217 0
143 -31 86 -307 0
-219 -442 303 12 0
-484 462 -55 176 0
324 329 -4 -114 0
9 316 186 465 0
232 189 -217 458 0
-399 -179 -191 -146 0
-55 -71 -429 415 0
394 -61 -409 402 0
-406 -212 284 -118 0
83 217 265 22 0
-230 55 76 304 0
-238 -44 -101 -261 0
-118 171 -41 497 0
142 -252 154 -103 0
290 223 -94 -179 0
-220 -306 -130 -255 0
-344 -412 447 398 0
-226 -473 131 -430 0
300 33 -269 -124 0
-137 207 213 -218 0
-35 -408 -60 26 0
-20 -11 384 336 0
421 367 289 388 0
-162 128 -342 363 0
-257 20 414 302 0
203 402 311 -271 0
303 -225 351 -62 0
-211 -465 -196 -490 0
-246 -293 -137 -128 0
378 353 496 264 0
-313 229 -414 8 0
-435 -490 339 72 0
-277 -433 -88 55 0
15 -323 412 339 0
-484 499 410 43 0
305 259 454 -400 0
228 493 12 -375 0
339 -261 16 -418 0
-134 -156 274 71 0
-268 263 378 -475 0
-478 -6 277 -89 0
164 -243 -342 48 0
154 305 207 47 0
-256 -346 419 303 0
259 78 238 372 0
-245 341 -326 -26 0
-464 -405 -46 298 0
-329 128 91 250 0
-171 371 194 182 0
-338 344 329 204 0
360 -328 -145 -428 0
-314 -220 -14 -137 0
-288 174 -53 198 0
423 -323 209 141 0
405 399 114 137 0
-451 -224 71 133 0
-309 295 -35 -218 0
425 58 -301 459 0
308 328 418 -84 0
110 -244 369 -209 0
-131 -165 285 -262 0
-85 -185 -465 -490 0
-50 -220 -163 -333 0
-291 214 -206 433 0
-383 -34 396 265 0
323 22 280 -278 0
-283 -75 50 140 0
404 116 430 168 0
280 217 -316 340 0
-203 357 -317 -282 0
-457 -444 -47 168 0
57 64 -315 70 0
245 185 -127 -357 0
243 -41 217 350 0
-285 -414 203 107 0
-52 264 -297 -134 0
13 305 -336 334 0
129 92 25 -151 0
463 -380 -442 -286 0
224 135 -83 8 0
251 -388 -227 175 0
-394 164 494 -114 0
-125 -439 -401 -190 0
-325 -95 -395 215 0
310 -312 178 -118 0
-439 -96 61 -90 0
494 -452 -245 -356 0
-35 -200 15 -54 0
467 -498 437 258 0
31 -4 -390 464 0
203 -247 365 -254 0
-305 452 -483 184 0
229 70 368 -210 0
-76 -374 -57 471 0
-453 246 176 117 0
-273 25 -237 284 0
-486 264 90 -159 0
167 450 -130 -186 0
484 -220 -131 157 0
-446 -101 -433 451 0
230 147 395 276 0
-318 376 -418 -44 0
341 -151 -331 -329 0
427 285 276 -195 0
7 -336 278 32 0
424 -22 -131 169 0
118 -167 369 -280 0
-435 118 452 157 0
380 -54 -264 -36 0
-464 -35 -432 218 0
-490 185 -134 135 0
186 -353 34 244 0
8 329 352 -334 0
-306 64 76 275 0
377 -198 412 319 0
80 -454 455 -392 0
-297 -360 -69 -429 0
-193 120 19 415 0
-196 364 130 90 0
-304 231 -84 267 0
-331 338 -282 256 0
108 -89 265 444 0
86 -75 -63 23 0
-9 -33 -355 268 0
261 431 324 -306 0
-198 -63 -6 281 0
-148 32 470 371 0
329 -484 -44 -302 0
385 -393 -439 282 0
302 -162 -427 347 0
-9 -235 -428 385 0
484 -169 -488 -381 0
353 24 -224 -222 0
7 -464 -332 -202 0
431 -457 -483 -116 0
205 -315 419 -473 0
315 -8 -189 -396 0
284 73 -194 -274 0
-236 -402 8 271 0
290 61 -242 271 0
187 -16 -190 -412 0
233 -460 -194 -12 0
221 -452 360 392 0
-287 -426 -447 96 0
-390 -484 -460 -293 0
172 -262 -161 498 0
-344 383 71 -250 0
345 -409 428 331 0
-482 -71 224 -137 0
301 39 231 -28 0
-375 188 -137 -470 0
-249 427 -428 24 0
-73 65 433 -446 0
-376 26 33 -324 0
-487 -28 236 -88 0
91 -258 84 471 0
3 30 46 -249 0
-353 -135 -368 -232 0
479 -278 -474 -477 0
180 483 -288 329 0
500 1 -313 92 0
-45 162 96 -219 0
-419 442 -407 -226 0
-37 -415 221 -304 0
359 425 -335 45 0
358 151 117 -416 0
285 -294 110 -443 0
242 -393 60 212 0
474 73 -243 104 0
-372 -397 -37 19 0
-313 -207 -114 351 0
-402 405 373 -185 0
447 -471 -78 216 0
-20 382 220 230 0
457 154 477 -278 0
117 196 -472 409 0
-277 25 170 172 0
-202 -185 230 -318 0
-290 -94 374 423 0
167 -55 -22 253 0
53 456 -120 52 0
-199 -49 -308 352 0
350 -200 -28 352 0
190 471 120 -162 0
91 -1 458 43 0
461 -290 183 447 0
-359 -471 26 41 0
465 450 178 -495 0
-456 -317 174 -17 0
-227 361 -98 -433 0
381 303 346 188 0
25 5 202 148 0
7 -105 -354 460 0
450 110 220 -24 0
278 154 321 -315 0
316 -457 90 492 0
-352 -291 -175 -76 0
-250 -292 482 296 0
-466 -423 -281 -31 0
399 357 459 -124 0
-456 490 -112 340 0
-192 -442 -116 11 0
-81 172 168 -5 0
-109 -195 -161 -131 0
131 95 299 32 0
-113 -405 -114 158 0
293 21 -330 -459 0
327 -392 -492 -277 0
-454 -463 60 46 0
-4 145 459 -348 0
449 -289 285 405 0
45 -88 -304 -378 0
489 432 124 215 0
73 -235 -190 -182 0
-13 -356 -306 -65 0
83 -116 -366 385 0
51 -332 -408 312 0
403 64 268 294 0
223 -55 -396 58 0
-42 374 302 -451 0
361 -354 -49 196 0
174 470 122 -246 0
-281 193 -312 -483 0
261 142 170 493 0
-71 -87 -370 -387 0
151 275 -66 321 0
-31 130 46 143 0
474 -384 441 269 0
296 309 364 101 0
66 -19 325 -107 0
-437 -68 67 368 0
-53 125 191 368 0
-214 -172 -454 25 0
30 177 -367 -407 0
204 -463 300 50 0
-334 83 307 46 0
241 153 -194 443 0
272 -112 62 484 0
-421 -142 35 318 0
-104 481 -61 215 0
189 497 -431 214 0
457 21 -197 120 0
202 186 31 -156 0
-19 -226 -495 221 0
-368 -116 291 -214 0
-98 -67 434 -87 0
496 76 131 111 0
-482 336 -285 357 0
-263 326 454 489 0
352 -317 51 379 0
465 421 -365 -44 0
287 174 413 -123 0
236 499 -491 -96 0
126 -134 487 -104 0
362 -428 -188 435 0
137 -190 443 240 0
-256 170 408 233 0
370 -396 -483 462 0
224 -190 -289 242 0
398 -258 196 -493 0
-91 176 -147 -190 0
430 480 317 -470 0
205 -306 -74 -166 0
229 -94 58 -437 0
123 -189 -398 -368 0
417 147 27 -342 0
460 -81 -482 -213 0
368 -415 29 -232 0
-493 465 349 -463 0
482 -272 -421 -183 0
282 -229 -48 -470 0
497 -337 144 379 0
133 137 -433 -349 0
330 495 -84 446 0
408 -175 -449 -380 0
-296 -221 -205 -350 0
-467 32 331 424 0
-417 225 -478 275 0
338 -24 19 13 0
-34 159 -96 -164 0
310 155 117 -496 0
204 -271 -413 -322 0
-63 102 194 -319 0
465 370 14 -308 0
-127 177 66 369 0
-350 -110 466 121 0
117 359 -316 -98 0
437 243 -354 -356 0
-67 -117 -217 -219 0
-465 26 -283 -500 0
492 62 -392 -259 0
-8 -252 64 80 0
284 114 458 493 0
494 440 253 342 0
-274 -441 -133 -400 0
-75 108 -497 494 0
471 365 -261 9 0
178 -287 344 440 0
324 -441 -95 -92 0
-455 -317 -173 109 0
326 -405 370 -246 0
29 -140 204 -351 0
343 -162 -118 439 0
-77 7 -455 338 0
-261 402 147 340 0
-198 -33 -161 -375 0
38 -410 -90 480 0
138 37 -40 -290 0
292 -478 344 47 0
231 -281 255 184 0
10 130 -87 223 0
255 -50 -70 -374 0
125 385 -367 221 0
233 -208 -19 -290 0
458 248 -119 -41 0
-200 -346 392 15 0
-319 -244 333 -279 0
324 351 -293 461 0
-323 -395 196 169 0
-297 -327 -172 94 0
-181 432 -13 -397 0
-328 -234 -410 -472 0
-496 288 238 -203 0
-153 -294 230 -304 0
-104 198 -456 -178 0
-12 -209 -126 181 0
-198 -500 -140 -290 0
-452 326 -290 -333 0
-26 -356 -190 -304 0
271 -83 -237 -212 0
161 315 149 470 0
-314 202 -179 473 0
386 -135 -448 462 0
-403 -38 406 460 0
126 386 -312 125 0
-146 -116 -295 452 0
-429 -337 359 288 0
66 -310 371 245 0
329 395 -452 -268 0
496 -5 458 -390 0
-246 390 -23 -168 0
-364 402 -212 190 0
-20 126 6 -22 0
-33 -76 -371 313 0
448 -183 55 -70 0
202 -443 -183 -271 0
-347 430 242 -494 0
-294 313 112 -484 0
-357 -168 204 199 0
25 -454 -105 152 0
-380 -70 -18 -440 0
-107 336 56 -10 0
380 355 346 -411 0
283 406 462 487 0
144 -196 386 -299 0
340 -498 -250 225 0
-155 -107 431 164 0
485 25 -84 -83 0
93 230 385 -173 0
69 -267 -79 -320 0
294 -56 -111 -105 0
240 226 -35 -376 0
478 -418 -6 225 0
385 -417 -162 -128 0
-29 -41 483 463 0
-418 -250 88 121 0
-24 66 277 152 0
-409 470 395 9 0
-68 -150 27 -452 0
426 133 339 453 0
-244 329 -326 354 0
-427 -308 -480 442 0
-117 275 -447 -472 0
-259 -447 -477 33 0
-401 353 176 198 0
-372 -379 -76 485 0
-482 -40 407 -96 0
-235 -495 263 -22 0
471 381 315 -26 0
-26 -442 423 -249 0
78 181 54 -301 0
163 -377 -454 -460 0
-253 -485 -199 -384 0
-185 -439 -149 -77 0
416 134 -303 -451 0
377 -1 -355 -277 0
-450 464 -427 10 0
-473 170 -7 -139 0
350 -194 393 -260 0
-404 350 -230 -255 0
337 108 -82 -486 0
-232 -472 255 243 0
-9 215 -42 454 0
15 -335 189 -294 0
166 -474 -443 489 0
162 -388 -341 359 0
-416 79 -331 210 0
-93 22 221 -194 0
-343 283 -174 50 0
436 21 -23 140 0
-33 -420 329 -43 0
40 191 -384 -152 0
-79 -446 -223 279 0
54 -391 299 -57 0
157 -385 69 -429 0
-476 258 -469 478 0
267 168 -398 378 0
-384 -160 -397 -382 0
93 -58 -313 -73 0
-94 -9 157 354 0
408 498 58 145 0
-442 359 -444 58 0
209 -302 313 -305 0
-83 264 -358 102 0
217 -210 -11 -378 0
480 -101 -383 83 0
-2 -165 -324 24 0
121 282 -364 -1 0
415 316 -88 -338 0
274 358 222 84 0
-91 433 285 -456 0
-405 -452 492 -105 0
173 326 59 453 0
-207 -91 -204 233 0
-1 499 -39 98 0
368 312 79 -51 0
460 96 237 -378 0
481 -392 377 -482 0
49 334 23 -217 0
326 461 479 -276 0
39 319 -66 240 0
356 57 181 -497 0
-355 154 -180 339 0
-375 78 360 201 0
-392 88 -314 -446 0
158 316 -260 -304 0
140 344 223 322 0
-297 442 -312 12 0
217 303 -156 -33 0
-2 284 -401 305 0
-352 -317 436 -293 0
-312 -411 -259 434 0
-266 484 323 176 0
195 -150 -398 300 0
86 340 -328 -264 0
-428 455 -17 -84 0
-284 309 -462 32 0
-184 267 54 395 0
-448 -341 412 22 0
-317 305 378 243 0
-213 444 122 8 0
25 1 109 -24 0
304 455 -446 399 0
184 199 -150 -50 0
278 -341 433 460 0
246 468 -370 10 0
412 -18 -16 58 0
-25 119 -139 471 0
-481 -23 -202 248 0
-206 420 -470 192 0
-65 60 166 -467 0
-478 218 -394 -92 0
121 -111 478 -326 0
-158 -246 462 -200 0
-115 308 224 168 0
-161 -4 -251 -426 0
53 86 -360 -425 0
-66 338 95 485 0
-122 473 -399 -328 0
139 275 329 280 0
-165 284 -167 88 0
-72 -365 440 -161 0
-315 44 230 35 0
-186 -158 -307 -48 0
188 -327 110 183 0
437 375 -152 58 0
-360 -413 293 -236 0
171 -119 -251 -262 0
43 -448 404 36 0
94 219 480 20 0
-286 35 -181 -407 0
285 -223 -95 162 0
-210 -168 -426 339 0
402 263 -26 52 0
-97 -150 -143 446 0
-478 84 304 -415 0
417 -203 -70 301 0
-135 498 464 -175 0
19 -58 -25 -273 0
464 -120 -427 -477 0
-305 -210 340 -268 0
377 481 264 398 0
-315 -371 235 -299 0
397 456 252 -169 0
266 -380 -57 432 0
237 375 276 -312 0
-71 154 271 277 0
237 8 475 -169 0
-169 416 -51 405 0
-82 268 201 -54 0
258 -175 -386 -223 0
-252 428 276 41 0
12 378 408 317 0
-434 86 -427 -54 0
442 -218 474 -217 0
425 337 161 -382 0
384 -7 394 -429 0
382 -63 -295 124 0
-65 437 -294 -243 0
-371 219 22 294 0
-439 -258 368 -63 0
-366 -237 106 206 0
-255 106 -195 388 0
261 -369 -307 206 0
361 4 321 171 0
221 -47 -188 325 0
-441 -198 -421 -193 0
-450 -60 52 -195 0
-69 -430 -261 467 0
279 -305 -216 -393 0
91 -267 43 194 0
40 18 458 -54 0
457 105 -172 275 0
-22 -500 192 -494 0
-252 -110 -5 136 0
261 447 -53 135 0
297 118 304 163 0
-23 215 254 206 0
-321 -495 355 471 0
-143 -481 -315 261 0
58 439 362 122 0
-70 434 -252 64 0
413 284 492 287 0
421 -139 -398 -370 0
-258 -390 268 -462 0
-383 -184 -493 263 0
-231 8 425 129 0
-58 483 488 179 0
-96 -280 -66 -203 0
-135 35 336 434 0
-371 -335 183 -231 0
29 363 -354 254 0
-82 139 -191 400 0
366 316 -159 -51 0
488 239 -15 -301 0
-131 -444 -478 295 0
-432 -153 407 74 0
-345 110 89 -215 0
-157 -196 -270 -221 0
280 -205 230 356 0
17 -305 172 400 0
-36 293 -185 -101 0
-244 -310 -161 16 0
289 -495 -7 -14 0
-399 -18 -336 232 0
-290 -22 -381 -261 0
-62 13 412 -422 0
-209 -406 58 254 0
-243 -428 -4 233 0
-423 116 389 -155 0
-74 -48 -332 204 0
387 43 73 489 0
157 -380 -422 229 0
107 -346 -94 216 0
-241 210 41 -334 0
497 347 -69 139 0
-58 196 -19 68 0
-275 298 473 -431 0
388 360 -147 -376 0
220 406 -450 -466 0
31 -465 -5 257 0
119 -225 421 337 0
252 -150 -318 -434 0
293 378 372 392 0
202 312 493 374 0
-143 -277 138 262 0
61 -115 -294 -495 0
439 -5 87 34 0
-381 -76 444 8 0
2 -32 11 10 0
-207 -233 123 304 0
-399 -291 -47 63 0
439 436 -48 -197 0
-351 254 104 479 0
296 -373 -236 379 0
173 154 279 432 0
-246 -133 199 126 0
-302 -264 142 351 0
126 488 -229 -43 0
310 -285 -331 190 0
-413 159 77 499 0
36 -186 -105 -166 0
193 -484 295 -311 0
208 -222 227 -76 0
-330 370 9 415 0
-78 -472 71 -335 0
-1 -77 -493 457 0
255 -135 353 -167 0
-498 99 -211 -160 0
5 151 45 -82 0
-360 -170 -55 -282 0
324 -499 168 -178 0
453 -17 -32 -238 0
-28 -44 -66 -288 0
-451 382 465 90 0
-322 -219 36 180 0
367 -192 -6 255 0
396 -457 -375 -468 0
449 157 -336 -91 0
325 -154 -197 -423 0
188 256 369 -381 0
-433 77 -133 121 0
-274 -87 84 482 0
-343 -488 -94 -202 0
415 199 479 180 0
142 -40 490 475 0
-227 262 -439 433 0
340 -82 -297 31 0
56 -413 -262 -156 0
121 -161 -443 -140 0
-379 -386 -194 281 0
222 -432 -130 310 0
89 -9 -497 205 0
393 -64 -52 344 0
-272 76 -238 -128 0
347 301 404 148 0
271 265 142 -301 0
444 397 10 -178 0
-83 418 -450 190 0
-96 -127 -442 16 0
271 -218 -3 422 0
447 -259 -198 28 0
54 305 229 -282 0
46 -414 142 -17 0
60 124 55 -385 0
334 -285 213 -24 0
-475 80 390 482 0
370 -260 133 -51 0
269 169 -445 187 0
-175 -115 -173 -272 0
-271 347 -445 429 0
-307 -390 -29 -367 0
283 -354 263 -57 0
104 347 -306 -451 0
-397 62 -275 102 0
287 -443 -55 -461 0
371 -367 282 -188 0
87 -334 132 -343 0
203 -494 96 84 0
-197 -309 -343 -391 0
-242 11 -200 411 0
61 126 296 436 0
-483 -73 -46 -165 0
-75 -199 -38 -3 0
482 -489 417 -333 0
-109 360 -384 -356 0
-278 -438 -150 -258 0
218 -308 -415 -39 0
-189 -467 37 194 0
199 -358 149 207 0
442 -169 -120 159 0
-451 -390 142 -467 0
-420 414 -300 -404 0
173 -165 382 -392 0
230 -465 253 169 0
-255 -260 51 175 0
-391 -344 -416 -307 0
403 150 223 -389 0
-237 -240 -73 -19 0
-424 257 238 -63 0
329 -386 -118 -247 0
-117 -272 9 398 0
-258 -434 -167 362 0
-171 133 395 385 0
-96 -285 -265 -427 0
-6 -229 -335 -457 0
-428 362 106 -483 0
214 -355 71 184 0
-428 244 -311 -27 0
471 -480 -268 -202 0
-190 399 121 133 0
-310 -396 -75 243 0
306 438 -231 220 0
-378 -165 211 -231 0
-364 174 177 131 0
-124 426 -401 270 0
384 -429 67 -234 0
-330 -76 -247 -53 0
-455 -251 -219 -311 0
151 -81 -316 453 0
-296 284 120 17 0
5 -107 300 439 0
-493 292 407 -282 0
-204 -138 -254 -425 0
-238 -453 455 -389 0
-100 -229 -455 -399 0
-299 -102 -107 -95 0
296 -115 437 58 0
-222 -124 469 285 0
-388 476 167 134 0
282 167 -56 -358 0
81 -389 253 -93 0
-199 114 179 -334 0
-65 -426 -221 -368 0
-442 86 284 -330 0
-384 321 301 192 0
155 418 2 215 0
-12 87 -23 280 0
-433 88 305 24 0
-484 -154 -452 417 0
18 -300 -116 -89 0
-4 -491 86 126 0
413 -170 177 -437 0
173 146 -169 -408 0
259 417 -284 -414 0
-398 126 -99 -449 0
219 -68 4 416 0
331 119 63 -65 0
451 297 -30 228 0
314 -308 -315 -69 0
-102 -39 -247 236 0
197 94 305 397 0
176 -319 -408 51 0
52 -247 -191 119 0
243 164 -78 -342 0
-460 464 -73 360 0
118 14 3 293 0
-162 -448 -71 -139 0
-118 -441 -170 182 0
-52 298 -328 54 0
249 -470 303 -237 0
-355 380 129 -441 0
420 131 322 -409 0
-93 377 -475 -497 0
253 325 196 425 0
-302 286 221 -182 0
-240 -367 -278 341 0
-326 258 -403 402 0
88 499 -397 -165 0
-89 -10 379 261 0
186 157 -474 -111 0
403 -300 201 -87 0
55 274 94 -181 0
453 -154 229 89 0
331 7 -47 -436 0
148 292 294 90 0
-202 -88 -426 -356 0
426 457 -176 -424 0
35 -245 -429 -146 0
-378 -390 -44 295 0
-69 -83 153 -429 0
3 356 -24 -215 0
-20 165 205 144 0
29 -243 -500 224 0
481 -182 -6 -8 0
47 228 423 -218 0
-445 -454 102 403 0
-145 -365 -48 -495 0
-179 142 -461 -419 0
241 -338 -459 199 0
-17 -217 -440 355 0
-24 -420 -143 -451 0
262 282 -226 11 0
-97 89 -154 -358 0
158 -137 -396 -40 0
172 408 -101 257 0
-6 85 184 -448 0
390 -71 -215 -287 0
-223 -376 362 137 0
117 -257 448 -173 0
-47 201 372 143 0
-17 -298 400 -113 0
-251 -434 -332 326 0
-465 -268 135 -142 0
386 -232 -432 334 0
435 240 -68 348 0
-462 -494 401 35 0
419 265 -383 -312 0
-357 86 -296 -432 0
233 -333 431 -429 0
-386 -452 220 -18 0
-469 -218 -304 -261 0
-109 12 419 208 0
-70 94 377 216 0
398 -42 315 -9 0
112 258 -390 -169 0
-106 294 213 105 0
-445 -435 258 -388 0
327 166 435 -12 0
-61 356 -234 31 0
40 -280 -443 -206 0
-430 -32 391 36 0
451 8 -243 99 0
430 316 42 -345 0
-288 79 -215 360 0
238 -47 -235 378 0
313 -135 -88 208 0
-275 352 489 -341 0
168 -155 -352 328 0
313 215 -231 -14 0
-276 225 98 2 0
140 119 288 -468 0
28 358 76 -401 0
276 58 -213 -242 0
329 -139 340 114 0
-387 -389 463 472 0
-298 472 371 -337 0
-103 -482 230 397 0
-212 -323 -153 22 0
17 266 -328 -460 0
-271 -85 308 -485 0
154 -432 270 -168 0
265 260 -338 297 0
-324 -142 46 39 0
-369 -308 453 -458 0
68 8 -286 -17 0
-30 326 -388 412 0
-136 144 138 -112 0
130 -172 -268 -349 0
377 383 -152 415 0
-192 -111 209 306 0
-235 187 128 -5 0
-418 -475 361 -31 0
-471 -387 151 125 0
22 -181 182 -114 0
-273 418 226 405 0
-448 205 424 -360 0
-181 -448 368 -292 0
365 205 -211 -78 0
207 414 -238 310 0
67 -191 298 159 0
-464 -90 70 -384 0
85 -493 -211 -289 0
233 -486 477 -292 0
303 466 456 486 0
-406 -488 376 -281 0
-498 -205 285 -264 0
-400 -223 -7 155 0
444 -414 -129 459 0
382 -98 -500 -392 0
-3 460 35 -149 0
205 76 431 -316 0
-334 -339 117 -437 0
154 61 -9 105 0
-432 279 -241 -68 0
344 197 153 -82 0
6 -169 318 -497 0
426 119 -16 292 0
53 319 -483 134 0
482 424 -398 280 0
190 -206 274 -68 0
-479 -2 230 316 0
246 79 388 -392 0
434 -4 -159 127 0
163 -116 494 38 0
-50 -7 -27 -255 0
-497 180 32 -116 0
24 76 356 171 0
-303 -102 -265 248 0
-415 -151 437 -159 0
-139 253 -221 -14 0
116 -162 34 -473 0
-40 -399 -388 312 0
-286 -437 -400 500 0
-443 -276 -304 -178 0
310 417 -38 286 0
-41 374 -378 -414 0
-410 318 -201 -343 0
-332 -252 421 243 0
-411 -7 368 160 0
390 128 -310 473 0
-13 349 108 302 0
21 123 -264 191 0
-322 -498 356 -381 0
-165 81 -312 358 0
-364 -308 106 -444 0
29 -478 98 310 0
260 -461 -28 391 0
