c Random CNF formula
p cnf 900 4230
-655 -115 26 760 0
-559 -90 -605 433 0
575 -204 -734 -666 0
-891 -7 -778 -826 0
-782 -345 -105 -95 0
-45 748 -471 -550 0
644 634 -883 -371 0
297 -82 -876 239 0
167 380 364 -215 0
-651 -176 -547 747 0
-705 571 -225 702 0
-825 324 411 275 0
218 672 -512 -406 0
763 -575 552 -270 0
142 522 -506 -94 0
-697 433 -611 -66 0
567 882 12 -697 0
-657 -349 115 301 0
270 -513 781 183 0
-520 -624 204 157 0
-1 614 332 501 0
315 246 -60 -247 0
-71 779 546 -785 0
541 894 622 434 0
731 -320 409 -688 0
231 -66 -347 -22 0
647 61 -235 -70 0
-686 498 220 -553 0
-804 -485 -827 -417 0
479 885 -747 -56 0
-348 -820 -883 -112 0
286 -474 256 896 0
-52 -668 554 -857 0
417 498 -493 -219 0
-400 -272 803 804 0
-570 -678 736 499 0
-556 63 766 322 0
162 -59 -521 83 0
414 -123 -584 253 0
-579 536 -324 -268 0
-688 661 -308 -469 0
-577 -103 76 551 0
-251 379 -292 162 0
827 670 542 -9 0
900 138 -271 -119 0
216 735 352 -209 0
-867 -53 -95 650 0
-653 269 166 -760 0
708 153 -559 -37 0
-316 -374 816 882 0
-363 799 -574 896 0
-886 -167 -820 831 0
802 422 -822 686 0
111 -392 894 -40 0
-313 -841 -815 -893 0
-886 72 792 286 0
340 -29 119 -899 0
112 -611 445 354 0
-395 -591 195 261 0
704 -737 -760 755 0
339 639 -322 -680 0
-419 -335 -413 714 0
694 -767 179 -631 0
216 -441 -805 594 0
524 485 -813 816 0
635 -344 -96 839 0
151 26 48 -251 0
645 -590 -200 736 0
6 769 -882 789 0
713 531 -476 -52 0
476 684 544 573 0
737 -517 -437 851 0
461 -266 770 -254 0
245 -282 -451 80 0
-83 -142 -155 -237 0
-339 556 -478 426 0
713 -21 878 -784 0
400 874 856 430 0
-500 -225 280 447 0
742 170 861 479 0
-607 -578 679 -28 0
-267 -389 336 -217 0
-852 -432 259 855 0
359 230 666 71 0
-205 -860 21 637 0
224 -477 717 263 0
118 -797 -839 -168 0
-694 385 407 -733 0
714 792 309 871 0
43 -356 546 -439 0
-431 -843 502 -109 0
157 446 181 752 0
794 496 -477 -447 0
89 286 462 -250 0
-507 -872 -333 -187 0
-611 719 -283 570 0
501 569 -777 247 0
96 -302 227 -415 0
544 -353 -436 -764 0
-237 124 739 198 0
-197 222 757 496 0
-103 -853 -199 304 0
-281 47 56 567 0
-106 -894 -13 588 0
259 -883 -490 117 0
55 -156 153 -831 0
783 -427 621 -611 0
454 -305 881 603 0
758 -102 -782 -213 0
-566 77 -161 -3 0
296 -724 -290 -720 0
811 -641 -604 -678 0
-153 -273 -847 146 0
-583 -296 -450 -128 0
553 506 449 83 0
27 94 235 691 0
-689 842 -276 591 0
285 -186 -600 -447 0
342 -329 687 -108 0
-411 -834 -779 -564 0
792 -414 886 -527 0
56 -193 -531 -371 0
-274 563 -135 295 0
-624 819 246 -727 0
862 -117 473 -121 0
-723 -280 -426 -855 0
196 614 -521 765 0
-425 -349 807 520 0
-594 676 -502 887 0
557 387 -467 -330 0
-877 -795 421 -45 0
680 -812 -841 668 0
605 -340 891 -103 0
740 -148 -420 892 0
347 639 710 408 0
390 -325 642 736 0
241 647 -701 -295 0
-649 721 894 -103 0
-816 -58 301 368 0
-812 185 175 -180 0
598 -147 238 473 0
-477 -295 -694 560 0
-655 -435 707 257 0
-110 -243 391 -586 0
-850 675 406 282 0
621 -764 509 853 0
361 225 652 195 0
859 141 -644 -100 0
-594 -374 750 -135 0
136 806 553 898 0
-264 845 494 -826 0
78 145 773 232 0
824 -571 375 -93 0
-689 767 -269 599 0
-483 26 635 575 0
-476 -718 310 -665 0
505 -119 -100 241 0
761 714 554 430 0
854 -502 631 -418 0
-456 242 876 372 0
-368 -63 408 -283 0
679 -218 658 -655 0
-129 806 -579 -211 0
-891 239 -337 793 0
149 -134 554 -257 0
367 -809 -808 -244 0
-432 -539 -117 764 0
-463 516 227 630 0
470 659 -32 -63 0
-730 -455 -76 83 0
-600 562 -730 333 0
-441 102 813 719 0
887 -221 441 -463 0
-748 -98 321 438 0
-486 -69 94 -852 0
134 570 62 -601 0
895 682 769 434 0
-361 107 -592 -520 0
866 570 377 118 0
786 839 637 629 0
-711 274 30 -185 0
186 -891 147 580 0
-94 -765 -544 -221 0
-333 -796 -582 611 0
691 -84 -279 -454 0
-774 -525 117 -354 0
-684 316 -47 -226 0
-217 -786 -141 783 0
180 133 390 546 0
-74 -407 883 760 0
590 -440 -588 -415 0
-333 176 -821 -633 0
-109 -250 447 604 0
-227 342 798 -173 0
795 358 -360 -745 0
-263 203 -178 617 0
644 506 476 773 0
659 651 -640 -331 0
-453 -647 311 -816 0
463 -39 59 378 0
-630 609 520 394 0
-461 830 586 668 0
-462 106 831 -858 0
254 725 -449 450 0
397 -419 794 -347 0
-338 -97 572 695 0
-618 895 154 -342 0
-672 716 -679 402 0
-659 811 337 833 0
-540 -96 -662 -687 0
-220 350 -785 -498 0
808 104 520 790 0
898 -785 -633 135 0
-640 -829 170 -739 0
455 -626 292 -771 0
-829 804 481 -856 0
788 -289 -797 -392 0
-620 -142 -894 257 0
-729 -867 -529 -872 0
-526 151 851 448 0
28 -425 55 -406 0
29 -327 -102 -860 0
-850 484 -713 -852 0
82 20 263 221 0
-114 -795 -296 244 0
469 65 -114 857 0
-248 736 -148 -299 0
681 -685 88 537 0
520 -568 -21 -400 0
-766 -17 366 -808 0
-596 -753 -775 341 0
851 -798 -702 -476 0
-734 -795 -469 -38 0
318 -528 408 -835 0
366 -883 -800 -49 0
-410 -762 451 -396 0
-817 -532 -274 821 0
-185 -559 -301 -329 0
-735 -437 171 707 0
630 446 -282 655 0
373 526 -821 768 0
-801 449 -36 -130 0
581 34 -620 158 0
-588 141 -543 -376 0
-754 191 -512 -531 0
457 220 -627 -293 0
-76 -463 177 731 0
-328 684 356 727 0
-729 -727 -718 654 0
-812 -143 243 -810 0
-565 -133 627 -89 0
421 -788 -420 -844 0
-478 697 530 353 0
787 -133 -444 -515 0
-169 166 331 -727 0
81 -257 202 651 0
96 515 -657 173 0
-620 346 -863 578 0
-790 591 272 -667 0
643 -559 297 658 0
-305 -465 -75 -706 0
622 148 321 883 0
134 -779 -380 -528 0
-254 -145 100 -52 0
887 164 -834 -336 0
-528 -479 -511 -316 0
-247 -221 598 362 0
-689 -482 -293 -550 0
-375 783 -413 47 0
76 -396 517 462 0
-122 132 100 -404 0
-148 -204 -617 522 0
-824 486 -532 468 0
327 -167 -403 632 0
-546 502 -726 577 0
427 598 316 816 0
272 -672 -802 -795 0
537 -645 739 -635 0
-587 -718 -113 196 0
421 514 794 -627 0
-142 532 213 -575 0
178 471 546 351 0
-823 710 -271 -625 0
-305 790 -296 -722 0
-815 739 -281 295 0
-839 -354 792 -824 0
-453 -672 263 766 0
713 279 -141 112 0
-544 -232 654 -239 0
790 -141 6 564 0
488 -489 -667 -205 0
-788 92 668 -588 0
180 -428 858 181 0
191 -767 894 -297 0
344 -292 466 657 0
-480 -280 -198 -829 0
191 15 755 -346 0
-877 -655 -416 -847 0
-144 -489 -332 -255 0
338 -310 -597 -741 0
-684 122 477 315 0
789 319 -707 -121 0
137 490 -157 466 0
483 -776 -551 822 0
-895 807 -84 539 0
-64 849 -561 518 0
453 -120 697 -211 0
-57 465 136 526 0
-316 -741 -23 -406 0
434 -353 718 66 0
-484 -33 294 419 0
431 384 -392 460 0
678 -896 -553 137 0
542 131 746 -229 0
-737 -558 -435 -545 0
-194 897 -743 784 0
-17 -247 212 69 0
-50 -251 -759 46 0
-58 144 516 297 0
-792 689 839 329 0
424 308 282 -63 0
-696 -438 570 -508 0
-538 -327 -714 427 0
247 -870 -231 -308 0
-423 -427 -571 543 0
461 868 -380 -95 0
-620 618 41 895 0
223 -491 214 -891 0
195 -760 -121 765 0
-210 -407 -246 566 0
316 -268 369 526 0
-780 -860 328 -209 0
150 17 -268 -567 0
338 -236 389 584 0
264 782 -842 -501 0
815 -361 174 144 0
658 -61 537 -35 0
7 -423 -141 -863 0
467 383 62 633 0
-17 -7 545 565 0
294 -18 515 -833 0
-99 537 153 -247 0
-407 -81 383 -416 0
848 869 -83 -670 0
387 566 -488 58 0
661 804 340 580 0
236 -217 -889 -709 0
-288 557 -578 674 0
602 -148 -771 -841 0
-247 581 -855 870 0
-144 810 -706 -742 0
238 859 78 349 0
335 -31 -650 280 0
385 -443 191 -697 0
-253 -731 76 -85 0
-399 325 -370 110 0
-105 136 90 -192 0
92 363 568 -96 0
424 398 798 -87 0
-534 -174 -702 -390 0
-172 446 -283 432 0
739 -641 -508 -609 0
-406 341 -862 -636 0
-844 -881 667 -609 0
-322 182 -408 327 0
249 -334 -386 288 0
607 -559 185 699 0
215 -449 817 299 0
-690 -512 -143 -649 0
-387 -76 460 613 0
709 -429 557 38 0
-654 88 -112 788 0
-577 661 694 -663 0
11 101 265 228 0
457 384 401 -475 0
-26 495 -108 303 0
-146 -357 -320 -352 0
-449 -740 714 -464 0
870 -352 664 -112 0
179 566 -164 -339 0
-189 -191 656 -674 0
607 -440 399 5 0
65 -592 -105 -819 0
269 687 884 502 0
602 117 357 361 0
305 -630 -605 -87 0
-383 711 145 -524 0
499 651 -551 -711 0
296 144 192 323 0
-497 140 200 -835 0
-504 -426 728 861 0
-226 -300 34 282 0
792 785 -508 563 0
-376 556 843 775 0
105 -754 850 -670 0
-357 883 837 -90 0
-831 756 603 -706 0
-143 -804 -212 -834 0
-552 173 332 721 0
696 835 98 139 0
888 -672 130 719 0
-780 864 -693 -403 0
463 -78 649 -814 0
-899 -378 466 500 0
749 470 651 -681 0
-440 845 -217 507 0
-580 873 -497 -808 0
-803 857 -471 -17 0
439 -208 706 136 0
-96 671 370 -257 0
641 -313 -744 -717 0
219 489 -80 -136 0
-352 -837 -124 -881 0
-749 826 -105 106 0
772 -896 137 -657 0
666 169 -451 -360 0
-704 -454 881 223 0
394 -360 440 -323 0
-616 615 -739 623 0
897 -309 -211 531 0
-803 -813 246 -507 0
-13 370 -325 136 0
-177 782 -483 -789 0
-62 809 408 -519 0
412 -85 -656 -550 0
-209 828 160 550 0
-659 68 -318 -716 0
445 -119 465 627 0
123 -13 725 141 0
-802 -843 739 -266 0
121 -790 -31 344 0
-591 -643 -79 509 0
-377 162 262 -792 0
522 -3 -46 -880 0
154 184 879 -37 0
-330 255 427 -738 0
690 54 184 -229 0
477 -887 290 -793 0
-206 299 -578 804 0
506 792 795 -201 0
-420 25 239 555 0
2 778 -674 386 0
244 -430 -504 -62 0
238 -866 533 -423 0
98 -518 137 -653 0
134 243 -299 268 0
-335 326 -464 279 0
-112 -160 -109 -169 0
-789 213 -463 316 0
312 -847 722 -714 0
729 255 -365 406 0
32 415 -876 -464 0
-813 144 -125 -13 0
411 -382 703 646 0
77 -23 -67 203 0
-850 -829 -340 126 0
-842 742 -405 -509 0
192 -282 287 -457 0
-303 -511 -422 -564 0
659 817 539 256 0
801 -731 368 492 0
-398 -277 185 27 0
-60 829 -484 -543 0
254 673 247 273 0
-225 590 867 -817 0
243 -607 326 826 0
361 -582 578 146 0
-505 -556 -317 -180 0
540 -490 -1 340 0
-822 -865 890 -332 0
-114 -867 539 882 0
-601 104 345 -310 0
-655 499 665 325 0
806 -366 -229 682 0
131 182 -747 2 0
-582 34 187 617 0
107 -509 145 -340 0
91 842 -726 -687 0
-256 -710 -70 -359 0
-751 -430 171 -424 0
491 808 -885 -592 0
-867 35 -302 -21 0
385 165 -750 77 0
-629 495 722 -32 0
55 -104 340 211 0
-554 -272 -677 289 0
-503 -158 56 370 0
-492 205 100 -27 0
-119 316 -804 408 0
-397 -190 -380 -391 0
-232 858 276 -578 0
353 828 555 424 0
839 536 429 -549 0
307 81 405 875 0
694 -636 151 -124 0
-217 -828 198 -130 0
843 -643 152 855 0
90 398 570 407 0
13 806 -718 -639 0
581 -603 -597 777 0
805 293 -889 549 0
-586 -624 485 39 0
412 -40 -406 -340 0
382 -21 346 838 0
-702 101 -890 234 0
276 -747 -427 620 0
759 497 778 -529 0
-319 727 519 -414 0
198 -897 -853 206 0
722 204 281 -378 0
32 -248 382 501 0
359 353 168 -858 0
396 51 167 875 0
-694 -212 276 668 0
-10 486 -136 663 0
-313 730 727 -659 0
224 478 310 -694 0
679 864 -860 384 0
494 66 -345 284 0
668 -306 -193 154 0
-830 -615 -414 -677 0
-303 -266 429 415 0
-195 352 744 731 0
688 368 520 -308 0
-100 483 132 -759 0
-697 -344 671 -92 0
-340 381 -267 600 0
-598 -595 -636 73 0
543 -306 424 -56 0
584 -469 -147 -324 0
-182 -321 650 -60 0
783 -163 502 805 0
-414 440 489 393 0
-330 776 854 -544 0
-711 -899 353 -320 0
-844 47 306 -298 0
-704 -138 351 502 0
414 -20 234 230 0
174 -127 376 -729 0
548 639 50 -609 0
-707 119 -427 -455 0
-712 703 646 -10 0
621 -718 141 -429 0
-117 -804 -109 510 0
-207 -367 -721 -420 0
-493 -339 -241 3 0
506 153 -93 -799 0
-237 -468 -304 -271 0
-298 369 -821 694 0
47 -10 -873 -142 0
-637 275 -900 -751 0
468 -279 -856 395 0
171 116 136 -713 0
605 -495 -822 -583 0
30 884 -701 -859 0
-422 -452 48 65 0
786 762 591 -742 0
-536 705 -718 -634 0
693 657 395 -153 0
-659 -161 -518 870 0
-329 -247 339 -285 0
241 -81 471 -455 0
-122 -510 -764 670 0
846 94 811 619 0
-671 -688 -468 -350 0
-574 786 635 -615 0
-778 675 228 -3 0
-535 -383 -719 109 0
739 -420 110 -261 0
469 -845 -801 196 0
858 -689 603 127 0
138 511 -5 544 0
521 800 -182 -709 0
615 -621 330 517 0
255 -281 -408 -352 0
717 767 -525 307 0
-567 648 223 206 0
136 728 -666 -183 0
361 576 -492 597 0
862 547 293 -899 0
-149 55 -687 -58 0
257 -150 860 -64 0
834 464 105 631 0
575 399 -244 524 0
391 -397 427 -808 0
258 208 636 890 0
722 727 664 377 0
199 -302 460 182 0
-123 -387 -42 439 0
6 -339 478 727 0
793 -641 631 -864 0
-803 -725 -326 539 0
-426 -557 -550 -414 0
370 -301 224 771 0
-665 -10 118 685 0
-250 41 -699 -329 0
742 -290 26 -530 0
-45 -304 -668 198 0
792 -551 547 -8 0
-702 435 856 107 0
446 -663 -837 -74 0
90 76 56 -183 0
265 -418 -398 462 0
548 7 657 738 0
-75 367 515 -109 0
449 -391 405 -842 0
401 816 -817 870 0
-815 888 747 664 0
127 43 6 -587 0
-767 760 744 -353 0
-189 -227 632 855 0
-56 872 -770 -563 0
-101 -203 -744 595 0
103 -292 -635 72 0
314 -711 -599 -157 0
-5 321 -253 805 0
138 -696 -751 -340 0
565 112 180 -662 0
552 -202 -270 -752 0
520 -647 32 833 0
-565 267 -557 -553 0
-791 -604 751 -878 0
515 11 679 -245 0
-527 144 457 164 0
-754 750 -496 -368 0
240 44 -685 212 0
-48 41 665 -332 0
760 -270 -593 558 0
-856 80 530 -258 0
-889 354 499 -812 0
170 -236 -79 -527 0
-735 837 122 -677 0
491 -216 -605 -166 0
607 165 -138 -645 0
185 530 416 614 0
-842 291 88 -222 0
851 421 -616 147 0
-271 -172 742 -703 0
-395 136 112 -17 0
-154 621 -99 182 0
-516 -771 121 96 0
794 -695 -665 442 0
235 -822 494 809 0
-858 -714 590 101 0
86 -291 -613 898 0
8 -592 -536 121 0
-419 371 -110 159 0
579 -375 -627 283 0
571 -495 184 380 0
-793 723 -408 -754 0
-802 -717 -166 103 0
-714 701 -724 -54 0
-149 -483 -615 446 0
742 -394 411 -629 0
-793 -840 180 656 0
531 293 200 35 0
691 37 -369 -245 0
-410 -362 -686 405 0
93 563 -292 744 0
-284 -232 -621 -200 0
519 -110 -573 75 0
264 -898 -551 -833 0
-496 789 250 776 0
-883 -29 494 -120 0
-719 -236 820 324 0
-270 255 -295 96 0
-183 488 -322 363 0
-195 -511 -755 -205 0
-855 256 -857 -634 0
680 505 -629 -7 0
636 -323 505 589 0
287 -408 228 -769 0
-554 34 -515 356 0
716 -531 -472 324 0
-334 371 -628 -883 0
-628 -352 375 -189 0
-875 -411 287 -462 0
-103 -739 -277 -824 0
-757 -154 -485 826 0
-646 -530 -547 738 0
-49 -408 -102 708 0
-99 -461 763 343 0
-353 21 422 125 0
666 -665 -552 179 0
-794 -755 458 -81 0
-172 656 -828 346 0
-82 166 352 234 0
405 -278 456 800 0
-424 172 189 875 0
-718 -768 -82 216 0
-562 56 -27 -790 0
-160 -87 -671 400 0
-135 540 859 -175 0
488 479 -892 554 0
-553 182 606 -612 0
656 -655 -547 -318 0
-316 -375 423 267 0
140 353 -294 481 0
307 10 785 441 0
-194 -422 575 -448 0
-388 -226 270 82 0
-827 711 702 -279 0
-874 71 187 -140 0
-638 -504 193 -329 0
105 289 -276 -129 0
-506 223 351 -431 0
811 33 -339 83 0
-74 557 482 186 0
-125 787 -732 255 0
-204 472 -753 -790 0
320 331 163 -645 0
-493 -654 306 204 0
-242 649 445 -333 0
249 -10 44 -596 0
-92 255 162 512 0
-641 62 -365 -661 0
325 572 -808 -661 0
-706 387 -367 -742 0
-302 -556 -714 502 0
282 889 -852 -614 0
-303 -840 270 -555 0
-190 20 -635 -878 0
552 -839 397 195 0
-331 420 -657 330 0
-133 -183 -895 33 0
857 398 -674 -502 0
621 -736 -73 14 0
-82 480 821 -655 0
378 -814 -726 -60 0
-312 80 222 -532 0
539 -673 255 -584 0
-109 -785 654 591 0
-171 -812 -185 564 0
454 -361 -323 564 0
441 846 -744 332 0
-763 -261 369 464 0
611 -17 -531 -139 0
877 323 -23 791 0
-570 -585 -586 -159 0
597 -256 -239 263 0
752 -80 741 333 0
591 -840 98 -610 0
-799 58 -790 343 0
891 789 -233 766 0
-392 56 -313 537 0
227 -157 -52 690 0
-517 -93 -228 -443 0
-586 -764 51 562 0
134 -781 139 -493 0
-631 -754 -537 253 0
-590 -92 -116 -688 0
-672 -25 789 313 0
639 -150 452 -46 0
746 -874 88 -116 0
-853 840 -295 -15 0
-340 215 758 551 0
638 -748 145 712 0
-45 262 175 -62 0
671 9 69 -398 0
111 -20 300 889 0
727 102 -324 497 0
-469 575 -730 -23 0
763 -161 -19 356 0
514 283 832 64 0
-31 569 287 -231 0
392 534 -695 628 0
-437 -320 620 338 0
-701 820 208 884 0
441 789 -149 672 0
737 -122 -189 -326 0
424 422 311 454 0
-156 -798 193 110 0
621 -581 -628 -237 0
799 -489 138 -515 0
-397 -504 -486 141 0
277 -423 -228 -761 0
450 888 632 -502 0
795 43 -623 753 0
586 609 -550 -538 0
468 -847 899 44 0
41 572 -397 -529 0
-312 -793 848 -293 0
530 -146 475 -850 0
-600 -713 -560 -139 0
-730 207 466 93 0
-736 -751 -127 94 0
394 -745 811 -524 0
175 -344 580 -893 0
-730 53 -430 316 0
121 -135 -208 4 0
557 -827 6 -623 0
420 -453 82 616 0
-571 -840 846 -213 0
875 -34 684 -592 0
-427 183 166 689 0
576 182 -467 -768 0
378 389 -840 -70 0
-125 -712 -881 -282 0
60 112 -586 748 0
-620 808 -724 295 0
639 363 133 -630 0
-185 -625 -239 -726 0
-816 121 -756 -869 0
-359 574 826 -653 0
70 316 -308 -519 0
406 742 -583 631 0
-689 -491 -486 -817 0
886 -550 344 474 0
-307 579 -743 695 0
819 -815 -363 68 0
642 -548 863 170 0
-770 -316 -723 -879 0
244 -381 -463 -850 0
804 -39 -797 -207 0
513 158 195 349 0
147 788 893 -101 0
742 38 -471 397 0
-704 -869 -609 893 0
675 -764 320 -24 0
-198 -294 -284 -546 0
281 -118 16 638 0
-278 -145 -722 824 0
-347 -554 455 -52 0
-56 89 437 402 0
-717 457 632 365 0
-547 -81 774 783 0
480 100 -467 -318 0
-230 -148 -882 632 0
-339 -808 -882 -333 0
473 867 -175 -290 0
-838 732 816 110 0
411 605 424 -245 0
349 214 -834 711 0
558 -711 242 178 0
-499 118 607 -611 0
416 72 613 -112 0
-661 -677 63 93 0
830 -1 -776 151 0
458 -201 211 698 0
446 736 353 92 0
873 302 -64 379 0
368 -113 882 -289 0
-326 729 392 -416 0
193 569 -394 864 0
-687 -129 138 -12 0
448 -140 -87 141 0
-619 -436 639 -185 0
-232 -191 435 620 0
-276 421 560 591 0
-116 595 494 708 0
769 798 287 -477 0
-646 760 680 -685 0
-55 -352 548 798 0
-340 -432 362 818 0
-312 745 804 578 0
673 -299 -829 756 0
-872 -803 285 -259 0
115 619 -179 -606 0
-802 718 -242 497 0
149 610 -842 -158 0
-677 451 744 -653 0
-271 -774 -840 -119 0
771 -546 -240 389 0
-446 13 296 817 0
-43 100 545 653 0
280 -344 277 -274 0
692 768 248 752 0
185 321 -561 -11 0
-107 -702 -457 -360 0
95 -59 609 -673 0
-123 89 877 620 0
-190 -114 713 189 0
284 788 -438 -709 0
-76 -284 -796 64 0
-272 183 452 -72 0
504 -112 148 554 0
-733 266 -106 -36 0
-510 -153 -669 -656 0
338 401 -589 -4 0
865 746 -800 832 0
838 799 -494 125 0
-411 57 648 -663 0
471 -779 -785 -297 0
196 307 -713 -400 0
-648 -449 753 195 0
501 -399 65 812 0
-461 17 -38 -348 0
-827 670 684 -536 0
594 -239 -74 38 0
634 -47 249 719 0
841 813 -100 468 0
117 -510 -610 -819 0
-856 756 695 -412 0
-857 -813 -219 -783 0
-776 -426 -173 714 0
137 -103 -811 868 0
83 7 8 -184 0
-711 -827 -812 -792 0
462 -422 -245 -179 0
-91 -643 847 -802 0
543 98 634 -371 0
-642 -676 -214 284 0
486 -510 181 -164 0
446 258 -343 632 0
-551 181 -162 -805 0
-456 607 594 -334 0
-113 -334 -234 101 0
-76 -483 -600 497 0
-183 -397 -383 -140 0
344 -131 -33 -709 0
-429 -176 -779 352 0
627 -175 592 -567 0
-222 -606 -485 858 0
-254 336 445 594 0
6 428 46 -42 0
404 -491 -830 -818 0
-772 -13 -710 -750 0
-93 17 492 686 0
-25 466 -475 791 0
-642 476 -721 649 0
544 34 304 437 0
213 -807 702 83 0
-691 -373 -53 -114 0
664 573 -722 -69 0
553 117 665 490 0
-772 763 780 -231 0
-56 65 382 -354 0
545 -695 -846 546 0
710 -829 -68 193 0
-296 79 -112 169 0
-534 643 24 -301 0
-431 -455 -756 661 0
-855 -533 661 -344 0
608 -682 -714 -543 0
-809 -314 -176 267 0
152 362 -292 467 0
187 180 -860 -726 0
-43 -325 -589 130 0
-682 325 -353 -152 0
-26 -415 -512 -787 0
757 -560 520 340 0
773 588 683 -151 0
-116 750 -491 -42 0
-862 -226 457 366 0
-228 -801 786 285 0
-90 525 404 -200 0
683 -370 -408 -152 0
354 -360 316 -457 0
-426 823 454 296 0
425 -143 -856 602 0
538 -344 -68 605 0
425 180 -570 -474 0
-391 297 568 -503 0
-573 -758 -475 230 0
855 652 -484 -128 0
-705 -661 251 -30 0
764 371 596 -493 0
711 838 123 -383 0
60 -150 -328 -473 0
-430 652 365 50 0
-785 644 188 784 0
-847 866 702 -820 0
-594 361 -844 -148 0
-349 -167 -105 224 0
629 707 852 539 0
428 472 -79 -120 0
372 143 837 -453 0
727 -312 30 -763 0
-233 -315 129 215 0
80 -20 -794 496 0
-526 -608 -61 481 0
773 -99 802 -127 0
360 30 93 -150 0
165 -876 513 -800 0
-593 -782 -15 542 0
551 5 743 -102 0
715 -604 190 451 0
-435 220 -527 -234 0
-533 -140 508 -781 0
-506 119 395 291 0
232 -568 418 298 0
-822 488 -696 -377 0
-449 -536 -675 693 0
-105 -760 -173 67 0
-414 -126 239 859 0
608 280 -775 809 0
-415 -497 -524 -286 0
-237 -644 -138 31 0
-184 -392 620 696 0
-677 -770 -533 -786 0
517 268 -556 352 0
-441 -122 -393 -461 0
-571 676 -882 -799 0
-733 399 500 783 0
586 482 -488 -576 0
387 -632 -693 362 0
132 858 376 358 0
390 -100 -439 -354 0
-241 664 320 -607 0
-174 21 -552 334 0
-432 -274 -21 713 0
-331 587 -101 -828 0
-831 -784 684 -348 0
651 868 -807 -78 0
588 412 824 232 0
607 345 -280 -69 0
79 -668 844 -310 0
425 412 258 640 0
-643 -721 529 884 0
479 275 654 546 0
-745 -642 -62 535 0
-784 308 865 446 0
-867 -423 274 -844 0
-245 117 -154 -197 0
-447 -433 -663 38 0
285 -675 564 181 0
57 881 86 -322 0
-373 688 674 -93 0
585 753 513 124 0
258 509 -93 244 0
755 400 -826 -767 0
-220 282 -451 -419 0
-116 -325 -559 434 0
-149 -372 487 733 0
36 -862 758 679 0
260 566 394 317 0
-548 -888 243 879 0
262 -309 93 -843 0
450 -647 -325 832 0
843 799 -504 -483 0
840 103 -845 165 0
-833 -561 -756 335 0
-646 -455 811 -657 0
85 114 162 256 0
868 -609 -703 421 0
267 178 -704 -608 0
187 403 -898 387 0
-572 -663 -627 -642 0
873 173 -51 411 0
175 -581 121 -15 0
690 -507 122 230 0
-295 765 507 392 0
-290 -745 -694 -194 0
269 -242 633 -462 0
-11 481 137 893 0
-726 -434 -754 -612 0
241 483 363 621 0
47 -6 -260 -517 0
-573 43 595 184 0
136 -92 -325 -728 0
-131 -512 -893 855 0
270 628 -850 -780 0
755 504 783 -155 0
-194 -153 -56 -236 0
-119 507 -42 -453 0
-867 -738 888 -152 0
-173 768 521 843 0
-5 539 -786 -585 0
97 337 -27 292 0
-109 -858 332 -158 0
-644 276 609 674 0
333 -750 -752 817 0
-331 818 -57 -762 0
-183 -246 -790 -887 0
413 -292 -663 771 0
754 -826 -318 -702 0
-205 502 -457 398 0
-831 -378 -629 -191 0
475 -693 -230 664 0
-538 86 -298 -480 0
-131 -701 308 862 0
-47 -526 111 523 0
-260 364 -261 600 0
-184 -806 187 -864 0
602 742 -466 776 0
-893 830 192 217 0
-109 -445 -548 -19 0
709 415 -890 674 0
632 370 708 -690 0
139 15 -196 -115 0
-493 665 149 666 0
-89 -309 -789 475 0
-757 720 456 -497 0
-584 -850 854 402 0
426 869 508 -755 0
410 498 526 606 0
-238 732 63 -541 0
-664 428 -485 120 0
-22 -166 -295 -744 0
702 348 -617 -874 0
729 400 -427 -854 0
-865 166 637 -213 0
-205 -161 621 -504 0
-215 -571 49 -19 0
-881 -516 33 -827 0
230 499 265 349 0
155 874 707 895 0
449 819 469 862 0
-879 -105 844 576 0
371 161 -746 300 0
158 -663 -373 343 0
788 -7 252 -855 0
-382 733 -773 425 0
432 -807 -234 -142 0
-873 -529 -814 -699 0
-826 -530 72 -87 0
403 -778 38 677 0
731 -819 -677 897 0
567 895 -312 -739 0
-541 626 151 718 0
-634 668 453 715 0
-309 87 38 -551 0
554 -291 -219 96 0
24 -29 816 553 0
518 -114 750 -62 0
-775 667 -128 460 0
825 764 596 580 0
240 359 307 -292 0
-387 533 -756 254 0
-466 -101 -151 -729 0
-134 488 -220 457 0
798 405 893 271 0
-502 750 -427 -844 0
-722 -526 -884 542 0
573 -379 -122 -617 0
-536 -157 -121 -381 0
-147 146 -803 -604 0
-188 839 -758 -501 0
-493 -587 -318 580 0
-854 621 136 781 0
-153 888 746 -334 0
405 348 554 47 0
887 170 725 26 0
-127 660 573 -88 0
-584 535 -194 769 0
-185 20 282 806 0
-87 827 -547 622 0
-349 448 -185 -425 0
-102 -555 -173 -293 0
418 -695 -174 -61 0
-400 -102 -328 146 0
124 54 -208 246 0
-395 118 -276 -63 0
649 240 -20 276 0
668 -805 129 312 0
802 146 383 -554 0
569 463 43 2 0
-172 -1 62 494 0
863 -648 -218 600 0
72 308 92 405 0
900 443 216 626 0
-651 -268 771 -725 0
471 -614 337 17 0
-5 10 689 178 0
552 -84 -807 898 0
-688 456 689 -127 0
182 -860 -787 832 0
-456 -10 227 -761 0
-93 836 -629 -641 0
372 38 -288 -505 0
841 654 -406 114 0
676 757 -580 -689 0
67 131 266 -584 0
869 695 24 710 0
3 -438 657 -690 0
417 -281 125 -697 0
739 230 -49 -285 0
-343 84 586 -828 0
-77 -256 202 -169 0
443 828 25 -607 0
-485 -245 349 853 0
795 615 635 -450 0
63 35 387 -321 0
822 -453 -57 -309 0
-54 302 -871 391 0
-807 -676 -639 11 0
104 -348 -667 -692 0
-106 13 -610 731 0
-653 522 -263 -364 0
-817 -46 62 131 0
-319 -598 555 -795 0
9 -531 601 674 0
-880 -56 433 353 0
350 194 684 -488 0
-593 -580 -344 631 0
44 508 -225 -4 0
-493 753 -787 -835 0
-7 372 -11 -76 0
-647 -600 -784 -369 0
269 -737 -179 -348 0
269 -104 22 -852 0
-216 -313 -468 246 0
819 -639 445 -900 0
195 -197 -546 388 0
-48 782 631 -602 0
55 645 815 287 0
-215 745 -84 804 0
-770 -661 -522 -384 0
-712 495 733 507 0
666 -38 -213 -225 0
436 -387 586 -161 0
-87 303 -456 532 0
-437 462 -479 -443 0
184 -453 -240 272 0
526 560 -660 -81 0
-40 -560 -206 342 0
700 866 282 196 0
758 -557 -268 9 0
416 -842 594 776 0
-153 887 -408 234 0
805 -566 776 -480 0
-193 -440 789 -715 0
-143 592 -895 132 0
-364 348 231 430 0
307 -334 -602 24 0
339 582 645 819 0
-210 -401 -66 548 0
-655 312 -96 176 0
-501 28 -192 -204 0
-676 537 -72 466 0
-421 -401 161 -114 0
-887 -212 134 -892 0
-619 589 -318 -602 0
-147 457 66 845 0
-503 -472 474 590 0
356 -718 863 729 0
426 -256 184 -633 0
583 -98 403 -716 0
644 551 299 -683 0
-506 -422 781 567 0
-799 -334 -420 -462 0
-655 -712 -692 -768 0
39 -11 257 -118 0
473 70 -85 -562 0
286 862 -166 -175 0
760 -401 -173 -80 0
183 222 -732 -36 0
651 831 -536 657 0
-455 -54 -613 -5 0
-245 205 -94 -17 0
686 65 -226 -99 0
-426 525 -111 -836 0
-555 -405 -439 -124 0
-670 -324 13 -399 0
639 -378 45 -69 0
105 730 -550 811 0
-615 333 647 -714 0
-180 651 -780 -705 0
624 600 460 392 0
14 -239 -22 -632 0
-250 -635 -82 -62 0
658 39 244 -743 0
285 326 660 806 0
296 -769 -25 235 0
681 -255 821 704 0
-188 -453 645 -7 0
-145 210 129 -94 0
-520 -81 -437 -743 0
621 255 -311 293 0
-493 -82 -369 408 0
444 -779 160 -840 0
86 778 -308 -610 0
314 -465 -291 385 0
-201 159 195 -5 0
-426 -405 761 -383 0
-40 128 395 580 0
770 740 -357 -522 0
-395 -435 754 253 0
693 -29 -715 682 0
261 254 -617 593 0
660 729 -394 408 0
-898 434 170 850 0
-392 601 316 -752 0
-652 -587 796 817 0
408 716 -316 -7 0
714 428 -538 -427 0
-721 138 -203 499 0
-191 206 -61 768 0
-419 452 -642 -640 0
-128 -284 -66 351 0
10 63 273 -770 0
-217 535 811 -8 0
498 -485 776 -346 0
323 -837 -246 -370 0
-339 826 103 4 0
143 -27 617 126 0
378 -463 -634 -703 0
654 833 330 18 0
-695 455 240 -622 0
488 675 -878 -717 0
147 891 533 -898 0
816 90 309 -853 0
457 -119 -494 679 0
717 -92 109 -446 0
393 785 288 226 0
682 -140 548 649 0
590 -785 616 67 0
391 670 658 -804 0
-119 298 90 115 0
119 587 377 -131 0
64 605 -549 -195 0
696 816 -130 -533 0
873 -472 -324 149 0
151 616 291 -150 0
-328 317 515 -706 0
849 -221 507 -299 0
848 734 216 -869 0
-887 -795 184 878 0
-869 -164 -23 -562 0
-401 74 -541 745 0
404 100 135 332 0
-727 -312 469 -671 0
149 215 -224 824 0
590 -105 695 -805 0
-862 -173 58 -99 0
-528 -666 347 -608 0
-122 247 -407 501 0
795 709 815 687 0
-282 -648 -669 -456 0
685 522 -231 24 0
-97 814 608 -186 0
129 102 334 -66 0
718 21 404 -570 0
858 599 552 -731 0
675 -121 186 883 0
-126 -41 132 589 0
-36 87 -128 519 0
-674 1 255 -308 0
-547 -456 144 591 0
621 552 -523 -215 0
-146 -307 877 853 0
-285 132 -747 638 0
168 410 468 -86 0
-209 73 645 751 0
578 -674 664 -841 0
807 -445 -389 27 0
-701 -562 417 68 0
-150 -890 818 -232 0
108 802 127 180 0
98 -542 -358 -718 0
-50 -175 326 770 0
-545 565 -609 871 0
-731 160 -674 130 0
-655 380 725 -797 0
-363 818 480 515 0
834 235 -313 -651 0
93 650 -82 -79 0
762 -293 568 505 0
749 140 492 510 0
416 15 632 195 0
768 354 251 757 0
-701 -624 44 622 0
231 180 77 -376 0
-389 175 383 116 0
-879 -121 -298 307 0
404 223 313 659 0
-869 -500 -59 -365 0
-359 -740 -191 -412 0
527 -158 421 -127 0
-482 405 384 -307 0
-450 673 -860 166 0
-727 -204 -114 -195 0
33 165 683 -204 0
501 -564 508 820 0
410 -514 -744 -760 0
22 130 -160 353 0
-351 -440 -612 -756 0
440 -254 -633 -157 0
270 -718 254 683 0
-718 748 515 626 0
-235 124 136 -411 0
-632 -205 -94 886 0
-237 228 345 -437 0
276 -373 288 -360 0
-1 -54 -677 763 0
-442 -190 -259 -504 0
-566 789 -883 134 0
542 -620 -381 244 0
-134 645 761 617 0
196 -198 722 -457 0
743 -486 -780 -207 0
729 259 899 778 0
460 -645 -735 121 0
516 810 -23 -171 0
-580 63 -814 711 0
526 -77 170 -449 0
-279 -212 189 4 0
810 526 -467 -516 0
-726 -275 -566 -122 0
152 -285 137 277 0
216 548 119 -2 0
-723 563 -271 740 0
-641 836 -11 -844 0
17 551 -674 889 0
392 670 -264 -891 0
333 276 -209 -596 0
-748 -744 -445 -378 0
836 884 -181 -194 0
-318 167 -182 -838 0
-252 466 661 413 0
-618 103 387 394 0
-45 -136 255 -789 0
10 -811 109 -556 0
492 -778 -577 -455 0
557 -709 -274 643 0
-106 524 -857 -426 0
-151 362 -672 294 0
843 -116 504 -174 0
-79 631 -342 -122 0
-155 -183 -439 544 0
-704 309 -640 -838 0
378 272 831 729 0
-797 -672 151 328 0
-835 69 -116 -592 0
-131 -187 -786 395 0
-617 813 652 -342 0
-563 510 -552 -547 0
733 432 -540 -592 0
-371 3 209 872 0
62 358 -370 -870 0
-856 874 -565 -432 0
713 721 -147 -387 0
-109 679 -596 -76 0
-145 81 -251 79 0
482 762 -144 767 0
-455 -801 -661 712 0
-619 -770 -178 516 0
-466 568 -729 -850 0
-161 279 95 -535 0
58 225 402 -189 0
710 -480 -489 -321 0
-381 -663 -435 200 0
-344 -29 -246 -289 0
317 -193 -565 207 0
-579 -46 -578 -810 0
366 -770 -290 -408 0
-133 720 691 100 0
794 -154 25 -602 0
-166 156 699 -475 0
-221 827 698 670 0
747 -624 668 -536 0
-369 639 877 -442 0
626 622 -77 -157 0
785 892 317 -561 0
-466 -322 -174 -303 0
-184 -728 -791 472 0
-666 -144 -127 -583 0
-635 697 133 -452 0
-699 424 519 461 0
-660 59 -759 810 0
-298 -385 -163 -584 0
96 358 -478 -480 0
-750 -111 -407 -787 0
619 -498 -218 720 0
-482 -150 656 -219 0
828 -371 -809 -441 0
-777 -701 -434 -277 0
-84 -306 -895 730 0
189 -851 56 -95 0
-204 358 -430 494 0
364 710 585 -399 0
-741 684 593 632 0
-846 755 751 -325 0
-325 117 -812 -691 0
-853 878 -129 -650 0
193 431 -714 -560 0
-196 -696 -591 -15 0
-839 889 -128 -717 0
849 -556 437 -536 0
-383 -182 -567 610 0
697 448 650 -291 0
-90 -826 858 -107 0
-768 -770 639 -558 0
-297 -873 -431 -217 0
481 -128 360 813 0
759 406 -8 384 0
315 -859 815 -425 0
27 158 810 -384 0
175 -586 441 -248 0
-53 821 592 -440 0
-326 530 -163 -448 0
591 804 402 -864 0
-331 209 96 -27 0
-725 557 -81 -586 0
-647 797 -367 192 0
252 744 799 -827 0
148 643 -24 654 0
-126 -110 -146 290 0
-859 -213 -401 104 0
-79 -216 704 430 0
185 306 11 -183 0
352 -356 496 -629 0
125 198 621 -31 0
-374 -118 223 31 0
275 -281 494 -205 0
764 -829 -508 -447 0
704 -867 735 288 0
-170 814 -211 740 0
836 -327 638 -111 0
-648 -840 66 461 0
301 619 -847 -899 0
185 -829 -331 440 0
-381 -149 -799 -322 0
477 582 -815 330 0
-540 223 106 575 0
77 -588 662 -432 0
-51 -822 -506 -511 0
-616 -335 -606 393 0
-590 5 -473 292 0
-541 -41 346 -661 0
-309 -282 325 -772 0
49 -403 306 714 0
-864 -383 -633 -106 0
-331 -883 -705 742 0
378 836 -551 6 0
-114 50 312 -77 0
-716 -175 142 598 0
871 424 -653 -458 0
502 -288 -330 -792 0
85 362 572 -856 0
-80 77 -507 -62 0
500 108 349 -214 0
-320 726 465 -672 0
373 -395 -464 -889 0
434 169 -703 -315 0
-110 -763 -113 -247 0
-544 464 -361 -272 0
-407 -515 -442 -521 0
-392 -750 433 199 0
506 532 444 -112 0
-55 37 -590 273 0
-717 -734 415 402 0
-508 211 176 -805 0
4 97 190 516 0
705 -245 -175 -323 0
-14 -683 -486 -439 0
696 779 874 -10 0
254 484 113 47 0
-538 -516 -172 774 0
464 -503 -753 -360 0
14 848 362 309 0
-864 611 496 -116 0
421 -877 -226 676 0
713 -442 369 212 0
281 899 642 696 0
180 -272 -696 358 0
317 -196 43 -594 0
-466 581 -812 356 0
478 698 154 -536 0
-296 -67 -819 302 0
-55 501 -314 -6 0
359 900 291 -805 0
89 -731 278 -147 0
-225 33 -485 -364 0
-101 268 310 -612 0
-593 -143 700 -787 0
-88 -305 581 644 0
99 142 540 -453 0
363 -438 478 -431 0
-786 432 91 774 0
383 131 -636 557 0
-129 413 687 7 0
87 -57 277 850 0
580 -494 708 340 0
735 55 719 -210 0
-692 -656 873 -159 0
-497 -639 705 -206 0
-100 254 -210 -107 0
125 308 415 496 0
842 628 -698 450 0
190 -146 839 763 0
-488 492 -297 -684 0
-396 715 -820 -110 0
124 -578 399 12 0
-456 44 -364 143 0
367 -513 877 -882 0
-65 179 -672 156 0
806 -144 -286 804 0
661 -496 386 484 0
675 539 266 133 0
-850 414 -70 47 0
512 696 488 332 0
243 108 -179 -746 0
627 -257 118 39 0
-861 -31 -179 329 0
-570 205 -201 259 0
445 -834 -542 829 0
-99 -209 35 830 0
886 74 349 190 0
195 853 -213 585 0
-874 142 821 69 0
-131 -802 -530 306 0
24 -230 842 -297 0
893 -162 295 77 0
320 409 634 59 0
-270 -669 -31 34 0
143 210 561 837 0
242 506 75 825 0
37 355 -73 427 0
-133 -278 -741 -43 0
490 -311 801 -871 0
801 -831 201 -548 0
-494 -54 397 785 0
119 -449 -121 -631 0
60 -244 238 95 0
813 -550 582 47 0
-79 -59 -130 450 0
-251 300 133 -621 0
557 -211 507 -723 0
731 310 -376 799 0
-327 -715 -555 516 0
498 287 81 -209 0
567 216 -126 -382 0
451 -666 783 -465 0
603 -394 308 -848 0
-20 -884 -392 394 0
-546 54 677 313 0
773 345 849 -269 0
-850 637 445 -887 0
112 -567 398 739 0
435 -587 737 -582 0
244 136 -16 -288 0
-556 303 -346 585 0
802 -669 830 -791 0
-271 -868 -184 455 0
-492 -654 865 -570 0
-625 -565 322 -66 0
-507 131 233 -646 0
671 -40 -189 701 0
234 -63 732 266 0
-554 -736 46 -615 0
80 243 209 -334 0
-437 897 -290 147 0
668 -384 -482 302 0
-606 -27 109 624 0
803 -596 730 353 0
-154 -391 781 -665 0
516 589 -646 562 0
818 53 -622 -484 0
-590 301 -250 -337 0
-767 119 -710 -247 0
574 518 -79 -371 0
584 -848 847 129 0
682 -142 -621 -267 0
518 152 590 507 0
-16 171 124 429 0
-130 891 35 -854 0
-888 -543 398 433 0
122 -345 845 -606 0
-364 460 -419 -646 0
138 752 188 -742 0
8 -608 -379 691 0
-603 -287 -792 100 0
538 -594 -521 865 0
147 43 -834 -753 0
-631 -322 -102 -356 0
174 296 266 -621 0
212 -566 859 521 0
-553 551 -819 -200 0
585 437 -750 -456 0
724 -866 -123 -456 0
286 750 685 -120 0
-77 -335 161 520 0
76 -724 -705 323 0
534 326 195 862 0
643 9 -252 -141 0
-482 -156 -497 834 0
91 -529 -878 741 0
-214 -728 -183 40 0
654 -358 -496 -544 0
300 -685 -497 -502 0
99 -225 -116 -774 0
436 119 -181 -476 0
132 -793 -496 -861 0
298 275 -520 221 0
-268 -692 -326 422 0
-275 498 -746 -225 0
-587 897 171 549 0
-338 133 620 -553 0
722 -342 -362 -786 0
549 204 -161 859 0
383 -340 -424 221 0
-774 -540 -105 -514 0
-236 -647 -791 705 0
672 -411 -135 -838 0
-740 -721 781 751 0
156 -98 754 -603 0
-332 -436 -525 -762 0
-672 -591 483 386 0
495 -292 720 547 0
-382 -782 560 -732 0
238 458 -379 489 0
-86 98 575 -174 0
413 632 859 -485 0
506 259 -422 319 0
-614 -417 893 -6 0
-512 321 668 242 0
751 -84 108 -436 0
-767 125 -171 -203 0
-175 642 823 -538 0
304 121 -446 -302 0
-381 578 -666 170 0
-732 -381 532 620 0
738 873 -139 -169 0
-154 -482 69 6 0
-339 -97 -63 640 0
232 -354 644 15 0
599 -747 -314 377 0
-676 208 -80 -607 0
105 130 -817 535 0
607 620 284 -827 0
-3 803 -238 -222 0
896 -1 332 -80 0
681 -484 335 -310 0
-395 724 486 364 0
863 220 171 649 0
502 712 -808 -257 0
-26 887 375 -876 0
-574 898 196 -392 0
370 -539 200 6 0
-515 -14 -622 -280 0
713 722 260 281 0
-483 -623 648 466 0
-827 107 -40 379 0
-892 872 -135 85 0
64 322 -100 879 0
18 -341 858 689 0
-601 740 -376 529 0
63 -67 -198 -845 0
46 -283 624 204 0
-4 -319 281 575 0
580 -475 -91 -120 0
642 -21 -786 -174 0
742 253 316 858 0
-756 -136 -318 55 0
-424 -232 856 -193 0
-451 -271 95 502 0
-850 647 704 -852 0
-583 216 720 -445 0
717 -516 565 -850 0
224 479 268 -33 0
479 601 331 -382 0
108 -645 -368 -891 0
-103 192 367 -314 0
632 468 -608 -590 0
-741 -383 -616 346 0
-240 782 520 -111 0
30 168 525 171 0
-204 -582 770 143 0
317 -812 -785 -145 0
-152 -206 177 -309 0
742 251 -158 -702 0
-103 -483 -564 -704 0
475 -724 -249 782 0
410 792 -335 -290 0
74 356 -501 686 0
-787 241 378 371 0
-80 -662 -236 -142 0
-394 -670 185 -436 0
-268 432 -184 168 0
355 -703 751 -104 0
132 -589 520 394 0
-433 790 -56 311 0
-462 -515 382 -800 0
805 184 -435 -545 0
725 605 265 -203 0
476 -289 -41 125 0
379 259 -436 -346 0
-301 -366 -428 -18 0
-750 -38 545 -757 0
149 -649 -506 442 0
846 -855 -751 -841 0
151 -624 742 654 0
-346 -653 768 -310 0
669 761 82 857 0
311 -631 527 -553 0
-485 221 -779 448 0
47 -620 -409 -186 0
-425 673 133 -282 0
-227 -231 -19 727 0
847 -472 -603 431 0
-13 -352 -349 328 0
216 -546 -715 175 0
81 -647 499 575 0
-312 -299 -769 323 0
-640 361 579 -442 0
762 -503 241 385 0
100 406 -224 -217 0
-797 753 -411 564 0
-328 789 372 646 0
-326 515 -549 -546 0
-846 -461 161 -895 0
476 -672 177 700 0
421 -194 652 30 0
614 -585 -750 419 0
-484 701 94 -380 0
524 -885 198 -871 0
-484 -730 -205 331 0
-471 -251 -701 -618 0
657 114 823 -619 0
-740 72 8 767 0
-883 -395 73 -802 0
796 -622 663 -547 0
832 -408 -849 843 0
645 -666 451 439 0
594 -772 811 -115 0
-249 -815 495 -216 0
727 -504 771 -251 0
-462 -717 -265 582 0
-27 -227 380 -578 0
-650 -313 487 731 0
-151 623 -300 -880 0
-311 152 599 13 0
416 489 634 175 0
536 384 388 -887 0
496 -389 -15 -685 0
285 624 -797 -747 0
654 13 861 -765 0
-208 -373 -681 -34 0
567 -548 867 -760 0
536 -254 251 263 0
-234 707 -735 -468 0
761 195 -751 -851 0
213 -234 -250 600 0
-53 -327 -809 -650 0
103 -556 -604 -221 0
115 738 454 797 0
1 -258 -773 417 0
-527 291 -661 307 0
-516 317 -641 -451 0
-522 482 508 -168 0
883 454 -351 -654 0
-238 219 -315 514 0
-625 -216 585 689 0
-873 162 625 679 0
-808 427 -799 744 0
-311 -380 149 -314 0
-436 577 -403 781 0
363 662 -825 144 0
-214 -678 -734 263 0
-334 -572 574 757 0
-110 -77 249 -165 0
48 800 -676 -400 0
-622 601 -385 -61 0
292 -114 484 138 0
845 156 895 -155 0
336 587 560 782 0
144 791 789 70 0
370 -792 -457 -766 0
-342 204 694 -721 0
658 421 438 -406 0
-525 -383 17 580 0
810 552 504 290 0
-572 800 116 545 0
480 625 -666 -196 0
-463 -757 156 -667 0
800 710 -758 -840 0
-639 -849 -400 20 0
599 691 -787 335 0
-364 733 -889 -591 0
-27 -547 -617 -865 0
-892 -323 -236 -674 0
-223 791 -364 28 0
385 27 -455 -889 0
-409 204 -211 -790 0
-593 -742 529 125 0
-367 768 325 -426 0
-262 -521 -115 468 0
103 -364 370 -318 0
719 87 -667 660 0
-748 -663 332 -47 0
160 -144 712 482 0
-677 -301 -381 633 0
156 -760 829 830 0
-31 -510 209 314 0
-30 -803 27 -340 0
418 48 -553 -387 0
358 -229 -95 430 0
877 550 -451 -138 0
264 132 331 -673 0
505 -767 852 873 0
147 231 -676 85 0
256 -232 257 -190 0
605 -533 530 -592 0
384 678 149 594 0
648 -50 814 203 0
-244 -166 407 -331 0
-891 -837 592 416 0
121 763 -287 672 0
-262 350 827 893 0
-351 -782 532 270 0
130 -97 233 -469 0
356 315 464 447 0
-187 408 -840 -524 0
752 -763 363 539 0
-820 546 372 -553 0
103 697 170 651 0
156 -554 625 435 0
304 -400 -535 432 0
1 -77 258 726 0
-69 -61 -774 421 0
249 -401 -806 164 0
73 -232 283 144 0
156 211 -455 -146 0
319 -537 106 -791 0
-128 -555 761 625 0
-350 897 -279 -42 0
600 173 898 -727 0
106 91 -750 618 0
-507 857 719 -443 0
742 -751 283 -258 0
366 -86 14 -104 0
445 682 -273 107 0
580 385 -622 -532 0
859 -813 659 -101 0
689 727 -619 432 0
451 -873 -472 588 0
763 -797 -443 686 0
337 102 300 -423 0
839 -700 -353 -361 0
470 -716 651 270 0
664 330 -759 -411 0
92 342 361 -632 0
314 -104 -740 -93 0
392 -208 272 877 0
-773 -164 -173 331 0
658 -574 304 -775 0
96 93 729 -613 0
-349 -546 363 407 0
898 -818 301 -629 0
42 -252 -562 159 0
-225 252 -897 -232 0
22 -879 627 495 0
423 191 869 532 0
765 268 -724 -816 0
-241 328 -554 366 0
720 -253 815 552 0
-726 488 -549 -322 0
719 -661 568 -841 0
-634 449 -510 606 0
-573 666 -59 -356 0
737 283 584 -259 0
-722 -783 137 406 0
339 239 -584 818 0
-698 601 323 -884 0
-123 -794 -73 -629 0
616 -793 778 184 0
340 92 -97 -414 0
-714 -486 -142 868 0
-259 -512 -93 189 0
-84 -348 463 -770 0
-571 -61 700 -383 0
335 394 -314 -29 0
-177 194 652 -636 0
700 159 615 384 0
182 -520 -153 834 0
813 -124 827 320 0
172 103 510 198 0
675 562 852 -399 0
253 -375 145 -246 0
61 492 831 -864 0
-533 94 680 671 0
-404 -776 -560 -659 0
-642 -437 -414 -446 0
-496 625 -399 314 0
-57 -541 852 43 0
-585 -556 -178 657 0
-395 193 361 551 0
-537 870 183 -521 0
-191 -227 -730 328 0
16 -47 -391 211 0
676 834 852 -339 0
-858 -412 46 160 0
433 697 -585 728 0
-755 280 -420 707 0
-195 -837 798 -500 0
786 -460 -132 -679 0
811 -501 69 188 0
733 -712 408 -292 0
123 405 -843 -207 0
-37 -481 -491 -112 0
-711 -826 70 -248 0
788 -43 -679 -516 0
583 -15 -157 -350 0
-660 -58 -401 -390 0
-200 344 -674 -739 0
-542 295 -571 165 0
420 -531 548 -18 0
-147 -107 -701 -240 0
581 -123 878 -230 0
-844 488 -586 661 0
-244 700 503 -628 0
-157 -466 550 369 0
398 -264 -165 -377 0
-421 -728 555 -873 0
416 -432 -428 -472 0
334 -682 -409 -137 0
200 -895 -747 676 0
-812 -419 -384 660 0
464 -308 -853 -794 0
-161 676 -394 -530 0
582 684 177 280 0
-589 -801 -821 203 0
781 499 324 626 0
-693 -100 806 -67 0
-874 -93 -321 366 0
372 -639 -324 -598 0
-311 104 -822 -576 0
634 -420 163 576 0
256 -117 -680 151 0
485 389 489 -175 0
-452 -599 -586 187 0
-353 -348 -88 -379 0
-154 114 -810 685 0
806 -86 364 618 0
-174 -374 872 259 0
502 327 -171 54 0
346 42 280 -768 0
-33 134 -893 -640 0
482 -390 -398 -37 0
-525 -875 803 435 0
-566 198 501 -289 0
683 -327 -883 522 0
-249 77 -182 -383 0
78 -10 741 -14 0
597 -642 893 472 0
58 722 -143 205 0
94 -4 444 -811 0
641 543 -198 488 0
481 295 -750 693 0
-82 181 203 270 0
-720 -780 78 -193 0
651 857 -607 -304 0
845 354 754 -247 0
-773 -166 67 64 0
838 441 -82 691 0
91 -327 603 790 0
68 -583 269 -745 0
-512 308 -782 501 0
-44 -708 362 420 0
-413 -475 890 -476 0
-26 895 143 -808 0
15 -445 811 -838 0
-98 -17 -401 -484 0
-311 -850 875 -563 0
446 -873 164 -500 0
-332 -723 489 623 0
427 -503 -14 316 0
627 -125 -614 133 0
-132 -379 -579 -485 0
335 705 240 -893 0
288 569 349 592 0
801 648 587 -235 0
577 -482 20 321 0
84 542 503 -474 0
461 -399 -797 198 0
61 -486 253 -229 0
-150 -803 280 -328 0
831 -662 -193 612 0
-537 -819 517 290 0
-306 -268 210 -148 0
-378 -477 -795 -152 0
-322 111 -281 -467 0
-132 -331 -18 -127 0
-852 -738 -385 -564 0
628 -857 779 -36 0
524 -58 741 -735 0
-105 536 168 -731 0
-423 352 769 72 0
406 712 -159 -562 0
-890 268 -233 246 0
-715 231 491 44 0
-141 513 -328 331 0
297 -505 -25 -686 0
-37 -214 -236 597 0
-522 849 169 407 0
289 -273 -570 384 0
-343 201 -335 -267 0
-668 -688 -525 789 0
761 896 -211 205 0
-220 -608 838 311 0
-864 -259 223 524 0
212 -512 -738 398 0
-504 492 575 -612 0
-632 -110 -1 -874 0
1 311 -456 -391 0
662 -196 -434 -760 0
-789 -36 123 310 0
210 124 652 763 0
179 -15 116 89 0
280 -277 24 -720 0
-408 -695 -387 -31 0
-14 591 -46 -673 0
-491 -208 822 -274 0
-459 830 2 666 0
720 501 -811 -238 0
377 -468 841 484 0
554 -150 329 -753 0
356 786 -300 152 0
-369 -443 89 617 0
462 772 -553 883 0
641 149 -614 350 0
143 -836 812 211 0
-514 -558 43 533 0
169 -758 -233 701 0
817 383 -562 -405 0
-418 705 -770 109 0
772 193 734 -1 0
74 -712 -314 248 0
-835 -196 -25 17 0
74 -69 -260 -464 0
-715 -612 -308 352 0
-490 -651 -630 -608 0
32 -262 718 -485 0
706 602 636 -360 0
-500 -778 -89 487 0
647 -97 466 -389 0
318 -566 -796 -721 0
132 608 -884 692 0
-475 282 714 -579 0
-600 121 -715 -530 0
-298 -616 340 -437 0
498 256 6 397 0
-45 310 188 -229 0
-456 -828 718 119 0
-577 25 -449 509 0
-711 -378 -651 557 0
-433 69 -67 -90 0
-250 -897 -141 -124 0
-676 -560 383 -571 0
-424 -119 -574 41 0
12 -381 62 523 0
-10 -311 -831 -141 0
-680 -487 490 491 0
880 824 -73 150 0
-490 526 -75 580 0
-231 -848 269 417 0
29 -198 688 744 0
767 131 -491 630 0
651 -162 -248 614 0
428 68 576 -87 0
285 403 -288 476 0
620 335 -316 876 0
705 604 712 574 0
-481 -346 94 709 0
258 645 -275 278 0
-332 -246 580 196 0
-422 286 271 613 0
-143 822 -789 705 0
329 -210 818 474 0
654 253 -211 613 0
-509 -384 252 402 0
-150 261 621 74 0
4 69 -194 832 0
598 -841 -284 -524 0
-502 -610 -111 -488 0
779 -821 56 -43 0
-803 -99 761 -704 0
-115 -346 -640 737 0
-585 -770 -274 566 0
781 -226 176 -826 0
165 94 585 -759 0
-253 866 417 227 0
287 -110 4 245 0
457 -219 -238 -103 0
-394 872 -630 769 0
504 -448 -809 897 0
-859 453 622 211 0
-387 -173 -807 -414 0
298 237 389 615 0
661 -715 67 -464 0
-21 -503 -447 -742 0
-276 -376 267 491 0
-544 -830 -201 -867 0
725 -163 -95 631 0
464 -153 301 -146 0
-320 -171 -534 69 0
-804 893 888 759 0
242 -18 828 -201 0
802 184 -547 -128 0
-547 192 252 806 0
-22 -513 -517 59 0
-248 883 -624 -855 0
-728 113 -731 255 0
140 -1 295 472 0
744 414 -538 478 0
736 858 -768 415 0
-512 130 -825 -38 0
-619 -423 -392 385 0
221 -446 794 654 0
-144 -665 813 310 0
259 -499 -409 -478 0
53 -252 -150 -656 0
-396 -670 894 444 0
-42 -890 -868 491 0
12 -104 -150 -763 0
-534 381 -25 460 0
292 -377 -53 -821 0
782 527 38 -683 0
158 -845 387 -339 0
146 -781 -202 -96 0
13 -137 200 -429 0
-561 -582 262 -216 0
-495 806 68 -225 0
82 686 471 832 0
265 591 -572 562 0
540 160 684 699 0
-797 -252 -232 835 0
511 -742 415 -53 0
152 569 -229 865 0
-101 715 -556 -518 0
-84 249 -167 -639 0
-59 -447 416 -835 0
-380 122 316 -242 0
-220 -416 441 -870 0
613 -335 -608 386 0
154 554 439 505 0
-156 -53 3 -483 0
703 -847 -717 -366 0
103 40 597 -85 0
-175 401 844 503 0
-852 628 -292 142 0
717 528 -99 509 0
681 -167 712 -485 0
723 -835 411 -429 0
-335 -216 -247 473 0
-121 152 -111 -460 0
-328 -594 245 736 0
-688 566 747 602 0
-373 -161 401 197 0
-399 192 833 510 0
461 137 836 335 0
-770 581 -889 -717 0
-96 499 -897 343 0
-285 208 739 185 0
-820 -630 382 346 0
217 152 341 697 0
-542 605 628 -627 0
737 606 -561 -298 0
-418 604 -643 -811 0
624 -586 -237 323 0
873 40 -837 -235 0
-235 -42 -228 842 0
822 823 -281 549 0
751 814 786 -656 0
595 219 547 678 0
-399 575 -744 -337 0
-337 -663 252 -492 0
-674 300 -688 -264 0
100 784 296 -317 0
160 895 -125 874 0
777 -277 184 117 0
-548 477 524 -126 0
95 362 -181 -398 0
-636 -824 -813 -785 0
-835 707 548 -199 0
-874 399 812 -775 0
-172 195 636 653 0
763 233 855 -673 0
330 -658 -378 204 0
-18 681 -382 -665 0
-475 88 138 864 0
485 -507 567 -565 0
-856 654 -325 252 0
57 308 681 -141 0
-871 -422 77 -544 0
27 292 336 190 0
-873 -103 -372 117 0
188 -591 -218 597 0
-564 773 555 880 0
-560 305 566 -674 0
-900 431 -96 -674 0
-603 5 -110 -489 0
-163 -606 -575 814 0
718 -888 107 -646 0
756 842 -885 699 0
280 -591 814 -748 0
-217 628 -683 -398 0
-605 422 593 295 0
-262 -664 620 510 0
708 132 591 -189 0
729 42 237 -256 0
-224 -284 -116 589 0
-424 -110 350 -212 0
378 333 -421 -388 0
-651 150 212 399 0
-502 -501 -281 -448 0
854 -62 -767 -470 0
291 -287 182 -437 0
-466 -357 311 660 0
-400 277 -165 -492 0
498 394 -225 565 0
-535 261 707 102 0
-21 -65 581 110 0
685 570 877 629 0
-542 4 153 21 0
-2 -493 199 -192 0
824 279 601 205 0
366 99 -390 484 0
366 -483 -778 247 0
707 -79 106 -579 0
-423 548 757 75 0
-227 -756 -220 224 0
124 288 -659 603 0
-627 122 96 825 0
-247 -46 488 706 0
863 502 -837 222 0
-235 -590 -285 -1 0
-713 169 -28 -757 0
177 843 -161 -240 0
136 -303 -472 -63 0
742 210 376 -643 0
-705 -65 -854 163 0
-701 -864 -431 -112 0
-446 235 717 833 0
544 -606 600 338 0
-581 221 -460 -436 0
621 -220 -752 -818 0
549 477 -94 -896 0
-755 -718 547 878 0
756 837 -139 -55 0
52 -521 879 -622 0
-538 551 96 -266 0
-503 871 859 -211 0
-152 640 -453 74 0
472 -169 -698 -283 0
-28 794 -681 -708 0
776 -761 -828 653 0
101 -450 803 552 0
-27 737 154 362 0
-297 771 -300 268 0
553 489 -295 503 0
-296 -514 -637 -808 0
-27 -46 -614 -51 0
350 91 -371 742 0
-242 -423 -153 817 0
375 -318 -842 175 0
-641 -482 55 417 0
633 364 806 18 0
-539 190 129 67 0
259 855 542 -128 0
-751 265 -878 660 0
529 199 -388 -736 0
159 690 -68 -145 0
586 -661 -686 -683 0
-430 775 735 -134 0
-318 -797 -258 85 0
647 -400 -161 364 0
192 -413 808 -235 0
197 -887 -747 24 0
884 298 526 -590 0
-232 749 112 378 0
-283 340 -743 138 0
-39 297 -704 655 0
-214 784 844 364 0
126 405 -746 228 0
466 -539 -478 739 0
247 -608 -94 647 0
-232 -41 -417 876 0
780 518 -509 777 0
879 417 -798 566 0
-214 -841 28 -831 0
131 -858 -612 -537 0
-720 510 -271 747 0
-426 -4 636 -697 0
-60 -79 319 619 0
-294 -112 -553 300 0
-601 143 -775 -418 0
-617 -518 -152 -76 0
262 -38 713 -764 0
766 44 -850 -376 0
405 439 -446 810 0
437 800 867 -19 0
209 -370 400 -408 0
-158 702 -467 -75 0
-224 -261 349 -365 0
-112 498 642 -868 0
-216 538 -852 -271 0
568 6 -813 -541 0
884 -684 -564 -755 0
-384 630 -742 128 0
-621 842 49 520 0
293 -588 -187 17 0
413 775 -613 724 0
828 385 891 800 0
764 748 -693 695 0
149 549 803 -375 0
579 106 302 22 0
-878 200 180 -195 0
-800 145 795 -441 0
-717 24 -572 -485 0
32 -658 453 179 0
533 622 -226 -334 0
533 142 674 575 0
353 418 680 -121 0
31 -563 824 870 0
-151 445 677 -273 0
-646 -75 -850 222 0
703 -150 -785 195 0
124 -258 -864 197 0
-792 319 871 522 0
-169 490 771 230 0
399 65 57 -120 0
-685 198 834 -627 0
68 -385 -541 58 0
-879 756 330 56 0
-893 -597 454 -658 0
-287 277 -18 -508 0
460 -144 -744 -413 0
20 -569 818 -95 0
394 49 165 -579 0
-407 537 -691 -547 0
92 -136 -322 367 0
-112 -479 558 82 0
-695 -105 -81 -618 0
-845 -526 686 -326 0
-125 195 -224 -459 0
51 -744 173 -886 0
-45 838 -97 -442 0
-257 -852 -105 -408 0
-810 -512 -684 -526 0
95 900 -504 -841 0
532 430 -176 587 0
-622 449 240 777 0
-898 118 -869 -528 0
235 -587 769 461 0
737 652 -439 413 0
413 882 509 242 0
-16 -374 783 -3 0
230 -645 -358 336 0
375 -16 -796 -344 0
584 154 -751 75 0
143 336 582 408 0
-548 792 699 275 0
889 -17 -163 -130 0
620 709 748 236 0
709 -257 520 299 0
-625 -525 -567 645 0
520 469 -830 -770 0
-184 -241 558 412 0
-192 27 631 -463 0
643 -680 473 507 0
589 -447 518 -510 0
-591 201 -506 768 0
409 -659 -191 -699 0
31 -680 889 -370 0
468 -583 40 -32 0
-765 -351 873 -384 0
404 201 -144 -362 0
137 -700 -546 758 0
888 -200 -560 -587 0
697 336 192 -546 0
-352 399 -172 590 0
352 -543 623 801 0
-109 -574 728 401 0
-396 -871 -573 333 0
-845 268 -230 8 0
525 -845 -591 -77 0
49 204 -535 -854 0
-859 -373 -216 -404 0
336 -208 110 222 0
-488 746 -867 -538 0
-17 636 273 -867 0
789 -812 -90 37 0
-125 -713 606 -537 0
-490 7 279 370 0
357 412 167 141 0
427 60 333 -885 0
-453 -287 -306 -884 0
759 686 -287 -555 0
888 -325 807 -730 0
630 122 -85 832 0
7 -41 -44 160 0
238 75 243 -135 0
-334 -890 -325 71 0
-649 -436 -569 756 0
538 632 -393 -396 0
-871 707 -228 434 0
-659 -424 154 765 0
172 -378 -295 215 0
-725 -557 828 -836 0
622 147 900 -862 0
-757 -9 -93 533 0
-475 -354 25 -546 0
467 -182 -806 186 0
-372 -576 643 273 0
334 146 634 -93 0
-674 -568 247 748 0
-124 661 -481 180 0
746 -223 579 -672 0
187 177 -159 -591 0
176 104 751 438 0
-242 -567 564 148 0
251 -809 592 -877 0
428 126 501 -743 0
828 403 -297 -254 0
831 -794 511 626 0
-869 882 -597 -450 0
-340 253 -683 -611 0
-503 725 838 335 0
134 153 -29 -832 0
-747 -810 -744 -884 0
780 568 -501 622 0
885 583 449 358 0
-684 527 366 190 0
-769 -810 834 -788 0
398 661 -84 -835 0
356 856 893 167 0
96 -24 798 153 0
-768 -357 -680 25 0
524 198 59 627 0
-85 216 -704 -608 0
-649 -155 750 156 0
472 -420 478 771 0
-92 -119 -116 -392 0
739 33 458 140 0
255 -203 638 -765 0
346 -214 550 14 0
796 -534 -107 -154 0
809 -572 -700 -405 0
681 -335 -138 154 0
199 -718 -868 376 0
-830 760 754 671 0
354 132 798 -712 0
-465 122 146 283 0
-397 -315 781 134 0
798 160 -27 -145 0
-166 -491 237 -571 0
-737 739 -88 -442 0
881 -289 -544 666 0
163 -848 900 701 0
-34 -256 61 128 0
-578 787 -656 -463 0
454 -605 -694 -798 0
-253 258 -492 -862 0
114 46 569 -61 0
-28 -826 -755 -812 0
93 501 166 434 0
-687 -376 459 110 0
-722 -63 -475 -87 0
-474 -730 235 -341 0
-544 -283 -504 -308 0
-18 579 446 -187 0
-721 -440 611 -260 0
-688 -823 894 796 0
451 -261 -859 -448 0
-66 538 -247 -851 0
-273 413 425 -436 0
-70 -815 -120 52 0
-39 -21 767 671 0
841 733 577 776 0
-323 256 -684 725 0
-514 39 828 604 0
405 803 621 -542 0
605 -450 702 -124 0
-421 -392 -102 -153 0
-273 -255 -239 851 0
-528 686 -606 610 0
827 -16 69 729 0
-677 143 27 220 0
-176 -109 92 -421 0
-823 677 643 266 0
819 86 241 379 0
799 -599 -460 -151 0
857 -551 516 -641 0
841 872 -73 -560 0
777 124 -463 365 0
520 -383 -449 12 0
429 486 -328 -485 0
-577 88 307 610 0
524 512 691 -837 0
517 155 475 744 0
-489 681 -651 -52 0
-810 -91 -595 434 0
255 182 500 -291 0
741 -387 363 110 0
-687 -657 408 -187 0
-656 290 856 625 0
440 -27 -273 -464 0
-347 105 396 -146 0
646 -417 282 556 0
-798 228 -273 -548 0
-447 141 265 -405 0
590 -70 -436 -23 0
850 -116 601 775 0
656 835 -168 -841 0
-737 -418 1 -350 0
524 97 411 -341 0
-286 -769 -310 -508 0
-33 -894 198 -714 0
-65 482 774 759 0
130 717 265 609 0
-747 3 -888 -411 0
278 424 530 869 0
404 642 386 272 0
255 716 -596 406 0
-581 -320 -706 -888 0
676 51 114 -128 0
-704 800 490 -370 0
-117 73 -486 81 0
-771 -790 -569 827 0
664 -129 103 -528 0
8 51 26 -609 0
-595 -257 -184 49 0
805 -759 -883 -571 0
447 269 -166 15 0
502 -775 -454 349 0
787 327 -227 -197 0
878 802 379 265 0
189 -789 -429 -345 0
-623 356 -235 55 0
-122 180 -156 302 0
-490 -711 -673 -486 0
-29 107 -81 182 0
873 516 -835 -258 0
-779 550 -16 111 0
-573 131 201 -896 0
-805 14 -822 -280 0
-169 654 832 -436 0
542 -258 -235 -754 0
603 -748 396 888 0
651 -173 -378 272 0
-712 -770 239 516 0
275 -49 33 -693 0
479 347 -758 -150 0
-199 158 731 459 0
504 -699 -636 752 0
-783 212 249 -681 0
32 -197 -889 -853 0
487 -363 732 13 0
-397 253 -847 -43 0
812 236 -333 737 0
-339 869 236 313 0
759 -107 -528 -71 0
69 -863 -436 354 0
-369 268 269 438 0
705 -68 487 -618 0
658 703 -667 774 0
127 151 -550 468 0
396 824 638 582 0
-783 708 -614 63 0
858 491 -108 -281 0
830 92 883 747 0
180 275 136 -209 0
-242 244 582 812 0
-512 31 -402 -837 0
888 528 -51 -729 0
-836 120 -16 190 0
-396 473 445 389 0
688 889 -572 822 0
-838 -303 -194 382 0
-567 297 327 666 0
806 495 283 -432 0
323 -317 419 -888 0
4 -204 751 792 0
-4 -379 837 -836 0
855 -77 -340 21 0
-400 433 -276 -95 0
889 89 726 93 0
-2 -828 458 555 0
-276 791 -634 481 0
-200 441 -430 562 0
-579 -637 -415 -164 0
444 572 -569 533 0
677 -657 -497 801 0
-185 -372 -465 865 0
-243 130 23 -90 0
870 647 -535 -592 0
81 567 876 6 0
-75 -803 473 -370 0
468 -298 -724 93 0
803 77 99 -555 0
624 -730 -607 -413 0
-489 -343 525 602 0
-271 -739 749 -376 0
301 -382 498 -854 0
866 -592 145 130 0
19 -752 51 -65 0
-282 -55 471 -176 0
182 516 167 -574 0
60 92 498 -533 0
-269 735 -464 247 0
-556 -814 791 383 0
-657 715 772 61 0
865 475 -827 -112 0
-766 45 762 -372 0
-584 -140 -205 -45 0
16 5 496 263 0
588 805 -320 576 0
-817 582 -535 480 0
-353 -135 -610 264 0
91 -640 -813 739 0
831 552 -85 -219 0
47 158 -361 -794 0
480 -304 -219 803 0
844 -248 -346 893 0
-559 -446 40 764 0
-258 -307 -555 516 0
-392 817 646 -871 0
55 457 -836 -455 0
344 -361 82 373 0
10 609 -35 -554 0
-645 717 -317 -749 0
86 -103 474 798 0
146 -337 -825 303 0
-182 173 650 -25 0
-275 -716 -86 -699 0
449 -322 804 -813 0
881 -428 -778 -832 0
-884 737 188 900 0
-451 -649 633 -348 0
784 -454 722 196 0
-726 -761 -605 691 0
-68 50 -10 -403 0
739 -13 -209 -707 0
-33 900 220 -439 0
74 -556 -308 642 0
-631 632 -179 -559 0
-581 -349 -151 47 0
-584 592 14 660 0
-561 -61 -76 560 0
248 -491 513 -274 0
-199 584 869 296 0
-22 3 403 -503 0
-9 -224 -165 649 0
-321 -262 134 -401 0
63 643 -192 678 0
-316 339 -877 -98 0
-432 -860 694 48 0
-424 523 -260 -249 0
455 -226 814 -140 0
468 343 773 -898 0
-878 580 882 -191 0
172 -405 48 237 0
-817 -9 -711 -145 0
-475 26 -712 611 0
863 -166 -232 731 0
173 102 -663 815 0
538 -805 -128 -535 0
-97 -445 109 -792 0
564 84 -748 603 0
-172 721 708 97 0
792 348 243 -491 0
561 385 624 159 0
-283 -340 319 -888 0
-773 489 167 2 0
641 -859 -235 -139 0
499 286 671 217 0
68 -432 -369 -592 0
-643 -753 -14 131 0
-713 153 -225 873 0
-131 713 -897 106 0
-134 -516 -96 -428 0
699 845 59 -353 0
-471 365 -408 -599 0
-24 668 166 613 0
76 -481 306 388 0
-544 -224 123 805 0
-283 -69 -635 397 0
122 -430 499 -15 0
862 428 -403 -472 0
404 -157 -87 -585 0
-294 798 -782 -803 0
202 702 314 -620 0
-310 -663 620 -386 0
-445 -855 -121 -91 0
141 849 -757 352 0
104 696 -528 871 0
609 704 -633 -101 0
319 841 -729 -87 0
574 347 825 -246 0
-472 192 -375 -683 0
208 -835 36 -829 0
-685 542 -512 416 0
798 -746 -400 -707 0
601 730 738 817 0
-344 205 370 -246 0
396 746 -609 -796 0
-288 -130 81 182 0
587 -341 -859 -634 0
-779 409 611 -147 0
865 -458 -187 116 0
140 246 -377 -796 0
834 293 54 -684 0
-162 -426 -837 120 0
-58 464 -581 423 0
698 19 -31 547 0
-365 172 -146 124 0
-571 288 326 161 0
-181 -444 518 817 0
-511 50 116 510 0
-693 -26 709 -542 0
456 -474 -464 -136 0
480 4 -115 286 0
718 366 -835 157 0
377 -334 -665 -532 0
-877 -699 -183 747 0
200 -123 436 28 0
788 223 -782 408 0
-36 -204 125 203 0
401 -181 739 28 0
803 253 -353 131 0
-676 -700 219 241 0
233 717 -631 -195 0
874 486 -708 -711 0
-133 -233 -434 -438 0
51 -565 -471 47 0
783 -518 -827 -163 0
-128 160 406 103 0
572 695 574 -648 0
813 863 646 -446 0
-413 -490 -206 333 0
222 708 157 146 0
773 -623 300 260 0
580 158 735 -836 0
-363 415 59 -387 0
-381 672 51 -399 0
818 251 -69 876 0
-504 -283 -108 848 0
313 -791 125 -669 0
794 395 -179 -411 0
585 -849 -738 -485 0
-488 -47 -371 327 0
69 -378 -89 439 0
-690 351 338 439 0
-385 607 -217 -606 0
-489 -823 -1 -831 0
16 -73 638 -888 0
-315 76 207 586 0
-474 -545 581 -663 0
76 -169 437 503 0
-190 136 -449 -668 0
-591 544 -548 637 0
213 647 -702 -586 0
-94 -646 789 392 0
-805 -593 -653 -343 0
71 -361 -863 25 0
577 -656 468 -819 0
-431 575 476 -406 0
-305 -587 459 -608 0
207 -395 356 -437 0
417 -251 -362 323 0
-279 -579 -437 632 0
580 -666 -367 -141 0
-380 -608 -478 737 0
-474 -424 -691 -212 0
297 538 -636 -871 0
-289 424 674 446 0
300 764 227 -315 0
125 406 -584 618 0
-879 -265 283 593 0
271 18 539 -778 0
-49 608 -337 513 0
590 686 838 546 0
103 256 162 -107 0
63 708 -178 -118 0
-873 532 -357 -198 0
820 -600 -136 -880 0
-581 -444 869 -312 0
56 843 -29 145 0
-209 -752 -885 473 0
-402 195 -339 -597 0
441 826 -81 -588 0
-306 -194 -266 -713 0
556 -564 -380 50 0
-162 -687 -759 -139 0
-272 -417 213 672 0
426 517 760 710 0
29 34 -566 811 0
-145 583 -882 288 0
670 -92 -663 -679 0
193 -39 -310 213 0
-855 376 49 -168 0
-347 186 460 -770 0
206 -137 -533 -157 0
-411 -588 -111 -221 0
419 -480 452 70 0
374 -836 -11 449 0
769 -834 -323 -256 0
58 81 -178 -237 0
241 30 -222 -278 0
304 470 70 819 0
94 466 -735 -167 0
383 -60 450 834 0
560 474 -748 795 0
-508 329 845 267 0
-188 271 52 396 0
158 -808 694 -481 0
160 325 614 -42 0
-777 547 289 730 0
-498 256 -643 -193 0
-134 -87 89 -49 0
355 705 -567 426 0
76 -466 876 51 0
-231 613 155 361 0
183 613 -326 -753 0
-146 -505 -398 -767 0
-370 -878 -297 -154 0
-831 267 606 662 0
-2 709 -553 -837 0
854 -19 313 515 0
13 -278 -476 22 0
-785 520 -701 358 0
459 -509 -264 639 0
-164 -899 -613 759 0
-486 -327 -814 -175 0
-409 358 -556 -86 0
-743 -162 155 607 0
-788 -421 224 44 0
-412 239 -447 -251 0
847 638 -741 -304 0
344 680 266 -639 0
210 742 -110 -229 0
548 -873 872 -230 0
-871 -156 97 849 0
-116 -729 -382 -552 0
412 -306 -9 107 0
60 399 317 -313 0
398 -182 584 -515 0
852 322 534 -336 0
892 -409 -767 -319 0
304 675 -185 -115 0
-77 -198 -188 18 0
-545 -223 815 116 0
-792 -883 717 -887 0
779 417 603 625 0
-668 165 -527 -716 0
443 433 420 -22 0
357 -202 -766 166 0
-4 -330 -647 48 0
241 564 -727 -2 0
830 631 -176 -676 0
547 715 443 168 0
182 865 570 212 0
-209 220 835 496 0
647 -556 -831 -769 0
-445 566 -313 796 0
811 -161 206 232 0
-749 230 358 192 0
334 -726 783 -754 0
-395 98 -667 45 0
-7 651 -552 536 0
-637 -131 -479 622 0
114 361 -608 430 0
359 -677 510 183 0
719 401 386 378 0
627 -891 -363 -589 0
-520 -608 -580 -167 0
652 10 783 456 0
-456 275 -643 487 0
312 -65 -783 -449 0
801 -610 469 315 0
-872 585 -292 416 0
-517 -868 310 116 0
646 352 212 409 0
-300 -796 -599 547 0
-679 -656 528 -826 0
33 -168 -409 143 0
-63 19 -861 558 0
789 227 -1 570 0
43 338 -495 313 0
486 -269 -854 876 0
243 15 -153 -458 0
696 -354 738 400 0
-611 365 -661 -209 0
-572 -268 786 579 0
-302 443 460 584 0
-670 122 544 -484 0
-647 769 -209 -438 0
303 311 -259 -135 0
352 -433 -573 -411 0
-146 807 797 -130 0
490 -141 323 -436 0
9 340 -242 221 0
265 -511 -315 492 0
-382 -612 229 616 0
-548 -231 -321 -7 0
357 224 105 -171 0
-256 -404 131 675 0
-798 484 -243 -656 0
278 549 658 559 0
-329 568 -333 176 0
-144 -730 880 -321 0
-630 87 460 69 0
-372 -316 -614 -95 0
375 -654 220 366 0
874 750 -303 115 0
-720 -826 585 -471 0
342 -237 -501 -523 0
86 -895 807 71 0
-187 438 -39 526 0
-70 -362 -814 179 0
-446 -189 -324 -701 0
335 852 -677 218 0
525 -52 104 -579 0
-286 -891 391 509 0
607 829 -408 603 0
-140 -602 620 -590 0
350 54 625 -602 0
-546 610 568 -349 0
-701 -726 349 168 0
-298 -295 175 667 0
305 635 770 -860 0
575 -898 380 844 0
773 533 -130 -531 0
452 764 598 474 0
-859 76 840 141 0
463 84 474 15 0
269 337 -831 -102 0
895 -164 -536 -401 0
-31 -215 541 515 0
592 -252 625 -504 0
12 841 24 756 0
587 -646 867 -171 0
152 574 -883 436 0
-92 644 849 673 0
476 -767 -13 -788 0
-765 763 -125 590 0
546 -129 874 -588 0
-125 -250 741 437 0
817 -104 -877 515 0
-307 -218 -732 473 0
-806 -544 509 -211 0
707 358 -522 -738 0
634 62 722 8 0
862 -441 93 -376 0
-343 882 396 -841 0
-809 -899 119 104 0
676 -138 -859 -521 0
163 558 -609 -432 0
-256 303 -182 534 0
700 423 79 36 0
332 650 210 -343 0
-272 44 383 -128 0
-220 -9 -271 147 0
-894 -105 -270 649 0
-236 -607 -325 814 0
429 508 412 267 0
-709 4 584 178 0
522 466 -784 277 0
243 852 -786 -337 0
465 -273 202 22 0
-123 808 -109 776 0
849 36 208 313 0
-520 506 -211 562 0
-750 -240 -220 -415 0
-239 735 9 -620 0
-525 -846 653 -895 0
358 271 -807 171 0
884 891 -239 -88 0
-8 -275 777 287 0
859 -722 -279 103 0
-861 -565 659 -78 0
650 -148 769 284 0
487 155 763 -400 0
182 383 -81 -508 0
-853 -711 -662 690 0
-53 -37 198 -313 0
-487 13 -153 560 0
156 798 -36 33 0
425 -739 139 72 0
11 -348 -477 -488 0
-342 -818 577 -13 0
-771 -798 -36 671 0
390 580 43 -762 0
191 -123 26 824 0
762 -418 -812 115 0
-71 -486 -855 7 0
-149 845 231 -778 0
-370 -148 -96 664 0
277 774 85 -146 0
-279 313 760 -844 0
-24 214 -691 -188 0
134 482 -419 81 0
694 -138 277 -354 0
38 -135 109 589 0
-862 94 175 825 0
751 -622 822 549 0
-527 -691 -432 -130 0
-539 276 -320 468 0
571 -91 579 113 0
-88 448 308 45 0
844 787 -207 -403 0
-334 -236 -286 554 0
517 162 -121 -230 0
-152 732 -877 10 0
-703 761 -152 -888 0
-224 3 -63 -22 0
732 413 -465 246 0
-787 -797 582 -93 0
877 871 -95 -394 0
702 507 207 468 0
745 -471 758 734 0
308 557 863 -85 0
-265 398 251 42 0
-528 -284 -701 225 0
457 -85 99 536 0
379 711 266 -338 0
19 194 -652 -267 0
-781 -245 -285 423 0
612 -257 -291 -596 0
734 -55 98 -60 0
143 724 -789 -553 0
228 -526 -458 611 0
-401 145 -35 544 0
140 479 -233 -809 0
-228 -353 466 18 0
-574 143 565 719 0
644 -181 -806 647 0
-408 -118 -33 -63 0
25 56 -88 -131 0
741 -764 180 206 0
-438 71 -360 92 0
-384 12 -510 754 0
-749 -773 265 320 0
148 -451 430 -225 0
-637 -91 341 243 0
210 -750 -317 504 0
-86 503 420 548 0
130 -846 470 685 0
-868 -429 721 -829 0
157 877 134 -283 0
419 873 559 -453 0
-479 -850 -83 -679 0
-423 112 826 523 0
-129 -241 -321 885 0
900 757 -772 -388 0
653 444 -864 -259 0
805 -177 -18 410 0
785 -127 -104 687 0
-544 151 -475 -256 0
694 601 808 295 0
541 530 284 -601 0
887 793 19 -356 0
-165 835 -900 380 0
-191 -254 -884 31 0
541 -435 -5 844 0
894 -518 -395 55 0
108 609 458 -564 0
92 -827 283 -34 0
120 247 110 -769 0
668 -569 425 -47 0
160 779 364 701 0
-265 101 -596 664 0
-889 -374 -10 -644 0
-543 170 724 123 0
-858 -455 -536 763 0
733 -233 -480 115 0
114 -798 631 482 0
-777 -603 -649 -394 0
-347 -858 233 42 0
8 187 818 -294 0
-361 -477 -888 513 0
-199 -818 -787 139 0
125 -401 600 -39 0
-361 -868 -467 -266 0
700 -366 68 448 0
374 -714 -767 -899 0
-417 -306 844 -149 0
373 -48 833 -665 0
-217 720 -767 -712 0
-555 -876 -300 -516 0
436 -616 -829 -77 0
378 73 387 488 0
716 -298 414 731 0
-338 -239 -318 -564 0
-780 283 -511 431 0
600 -807 -435 -877 0
-763 784 885 114 0
-338 -827 101 138 0
-350 371 -266 159 0
613 -473 -165 -233 0
777 -756 -863 -379 0
-367 -67 453 -105 0
371 -394 825 270 0
-493 -681 -741 -63 0
-17 -795 -191 453 0
-723 -471 -688 -186 0
-770 -404 -702 541 0
-854 -308 -47 460 0
-387 -700 212 -148 0
347 -214 -745 -562 0
-619 129 -224 -542 0
-688 711 31 -817 0
696 240 181 -59 0
356 808 27 -704 0
592 -429 761 -86 0
-264 796 -10 -322 0
755 -486 -513 -610 0
447 -871 79 601 0
-151 -866 186 -489 0
-212 185 -62 -724 0
780 77 -856 476 0
-504 -110 434 169 0
117 296 -275 -858 0
-107 856 436 -593 0
185 -765 424 583 0
-189 -695 -408 -276 0
-74 -462 476 -778 0
199 457 798 -41 0
204 -214 190 -424 0
230 -874 -116 -884 0
-248 569 6 553 0
333 267 63 161 0
-333 112 -716 619 0
777 -506 185 554 0
-228 357 668 -49 0
-851 441 736 -430 0
-171 -567 -660 312 0
-642 -601 383 -24 0
-836 -3 -429 767 0
174 46 559 11 0
-176 -610 -48 170 0
-307 -834 244 -635 0
231 -178 -161 357 0
-251 -367 69 -42 0
874 -61 -117 -634 0
736 700 35 232 0
292 712 -803 214 0
302 871 -253 404 0
28 356 -578 -765 0
-808 276 -771 277 0
770 613 403 321 0
-121 -147 -249 509 0
-285 164 68 16 0
580 209 459 -351 0
-458 -78 720 -235 0
-434 876 281 485 0
258 393 -106 -146 0
785 -235 28 5 0
-276 -323 896 -141 0
-708 -236 -881 340 0
-143 -103 596 656 0
453 -497 606 -473 0
-710 760 258 -881 0
839 261 644 -818 0
185 -754 -8 -310 0
392 850 589 204 0
-572 441 -363 -98 0
734 -556 682 -297 0
516 805 804 368 0
794 -329 -717 -448 0
-758 521 273 -408 0
222 883 -799 653 0
-173 -569 163 177 0
362 -747 815 680 0
-458 177 566 422 0
-93 872 -174 812 0
-180 609 -12 -807 0
-711 -455 41 138 0
-848 -860 -54 595 0
-663 -41 20 -735 0
-225 252 -380 -782 0
-475 96 89 -607 0
-22 -542 -148 -473 0
702 -767 -429 -851 0
289 -224 -726 -539 0
-475 -178 -205 -278 0
229 690 114 -211 0
-659 -812 -633 -266 0
-205 733 -102 399 0
-202 471 183 -476 0
431 -771 -33 -433 0
639 47 -839 285 0
-103 -524 564 452 0
579 -194 -177 307 0
-456 316 -274 -791 0
-439 800 344 -816 0
780 12 -170 -368 0
863 -780 141 -429 0
-529 445 752 -724 0
-348 233 -513 896 0
-179 -94 401 -744 0
-818 34 -596 -800 0
313 501 -867 -664 0
-536 -269 -283 218 0
-463 -864 668 877 0
135 -696 898 398 0
-801 69 377 675 0
765 -624 -585 35 0
591 -864 -113 -12 0
-862 858 -576 395 0
-439 -35 -346 -38 0
-522 252 217 -28 0
415 -483 718 -811 0
-188 431 -421 -879 0
17 790 -525 463 0
338 -693 613 828 0
-210 312 697 833 0
775 -494 410 -25 0
-23 -865 687 653 0
61 269 664 878 0
-412 -700 -741 -454 0
72 412 782 -167 0
-197 830 595 -596 0
-581 836 -550 -164 0
-788 -209 792 824 0
-547 -434 -843 -851 0
31 212 736 713 0
90 -691 790 244 0
20 116 -290 -368 0
390 614 -184 -66 0
265 -622 544 167 0
-795 -285 -675 806 0
-695 842 -759 78 0
6 -396 -650 -386 0
661 541 -594 -885 0
872 259 791 595 0
96 337 -2 -205 0
-614 -160 -423 -646 0
645 553 33 -531 0
412 -154 -542 170 0
304 853 -307 863 0
469 151 529 -520 0
-663 -479 -647 283 0
702 -116 -737 615 0
416 402 136 -16 0
123 -468 59 -651 0
-271 288 276 -224 0
260 -343 -535 -697 0
754 765 -303 830 0
-383 -221 418 611 0
-470 373 255 -10 0
836 722 -61 -256 0
-773 301 249 -385 0
361 -364 228 716 0
835 -451 -809 -377 0
410 847 719 -279 0
896 -735 -584 463 0
410 -421 -156 -203 0
475 -619 795 -640 0
-596 318 581 837 0
-139 767 -52 263 0
-578 -635 132 12 0
-583 -598 418 182 0
616 674 841 159 0
254 -221 329 770 0
476 -728 508 -462 0
-125 253 261 -538 0
-623 833 253 98 0
-614 -87 159 -130 0
-51 -669 675 716 0
69 -812 -313 -759 0
-578 -73 223 -308 0
-156 -651 864 -557 0
-336 853 688 393 0
304 12 -338 -636 0
345 -852 -238 32 0
820 105 -638 268 0
-848 796 -559 837 0
-5 88 -486 675 0
419 103 -539 441 0
751 -658 -790 298 0
-503 -264 -124 -728 0
-677 -634 -324 -871 0
658 -174 -76 -509 0
590 -781 -680 184 0
-856 -598 -612 -740 0
-42 -195 306 -750 0
-460 -294 -564 -624 0
548 -426 -887 132 0
-6 -709 858 -482 0
483 645 -35 -705 0
245 -674 -171 -885 0
-262 38 620 -834 0
558 -760 81 -747 0
-278 -736 820 -635 0
408 -49 -663 504 0
-849 821 -13 -735 0
19 780 -255 -619 0
553 -25 -698 215 0
-749 41 245 527 0
-286 -644 711 -762 0
-330 162 -623 715 0
-727 -615 212 -888 0
-57 195 620 480 0
-55 -781 788 861 0
-495 44 -611 173 0
95 554 860 741 0
81 -95 -205 -698 0
-344 -551 -283 -567 0
191 -674 -123 -115 0
-701 -689 163 151 0
488 -489 280 373 0
59 885 545 696 0
-82 455 769 66 0
-747 250 591 279 0
-136 894 418 185 0
373 -238 14 -142 0
383 -498 833 569 0
-50 -339 -833 -54 0
9 380 -46 133 0
273 -858 9 639 0
607 -122 -169 -61 0
-24 -623 269 348 0
-583 479 713 612 0
402 -43 -51 639 0
358 -835 -505 303 0
141 45 -327 -293 0
-338 -231 527 93 0
-610 -399 357 645 0
-781 -339 408 -416 0
-127 506 -632 -507 0
-832 -419 106 -831 0
11 304 460 -885 0
135 -202 -362 -819 0
-204 698 5 -70 0
-509 -829 -97 -324 0
-133 -184 -262 -310 0
272 58 -727 -385 0
832 -328 -712 479 0
753 82 777 -659 0
-762 -308 -868 736 0
568 -241 200 331 0
406 -561 -8 -384 0
-764 711 490 -868 0
7 -826 658 -103 0
248 223 195 -871 0
806 699 -137 -216 0
-890 -575 -137 330 0
472 -386 -633 -881 0
-243 637 -727 -164 0
-140 -245 703 -187 0
434 -632 -194 -234 0
305 507 676 -73 0
-689 -495 340 840 0
-130 399 59 -454 0
-565 227 128 31 0
219 -690 159 189 0
-132 -505 -461 479 0
-519 -717 -35 408 0
-454 -4 213 -572 0
321 -174 -639 516 0
39 656 -485 -811 0
-19 692 -664 -890 0
465 -431 142 381 0
15 -863 41 251 0
650 868 813 830 0
-747 -73 -290 588 0
107 536 -223 602 0
555 726 -285 863 0
519 438 36 -604 0
289 -612 -720 820 0
304 222 -131 -135 0
134 104 161 736 0
-77 -677 888 -107 0
-17 -5 717 75 0
897 168 141 -198 0
510 308 -177 847 0
-765 517 713 -504 0
132 210 -462 539 0
869 -298 -70 398 0
715 -741 -262 590 0
-614 550 -891 -278 0
455 -639 276 581 0
4 -877 -636 -879 0
860 -557 -61 -588 0
102 429 331 -365 0
285 339 -512 682 0
368 -506 -361 -103 0
-8 54 396 537 0
-877 -136 -299 -700 0
110 -158 180 263 0
484 304 -6 -148 0
548 437 18 525 0
748 -66 -464 21 0
830 -275 -158 218 0
341 749 -50 554 0
-894 285 -765 71 0
-654 -68 844 622 0
590 -899 -499 -139 0
-215 -372 -399 -625 0
-210 363 -772 789 0
15 587 330 511 0
345 -599 849 -644 0
-173 735 632 -257 0
239 93 -363 -544 0
-862 -892 -18 -480 0
-762 451 -681 471 0
117 -673 -317 69 0
-536 739 163 207 0
328 806 657 -533 0
585 -431 163 -251 0
755 659 370 -740 0
431 -859 493 -300 0
-717 3 394 413 0
698 89 381 95 0
-480 -554 -513 -154 0
349 577 -320 -425 0
157 -242 -137 -472 0
515 -594 28 156 0
37 -726 833 816 0
-732 556 643 654 0
-458 595 -331 -721 0
-322 208 608 538 0
702 -41 -864 464 0
329 -506 617 60 0
-730 643 400 172 0
-454 -421 -211 -538 0
-82 -155 -244 608 0
684 618 29 648 0
103 159 -581 663 0
-781 101 524 -786 0
412 398 733 -779 0
601 136 -225 493 0
237 230 -282 -724 0
-466 -48 -249 731 0
424 -883 532 -802 0
-708 -457 -14 -820 0
-825 -674 -224 103 0
-326 451 693 34 0
692 899 -757 -228 0
-377 -522 -551 215 0
53 668 719 105 0
872 -51 -204 411 0
-839 -796 547 617 0
-462 633 -458 551 0
-824 797 -643 274 0
589 830 301 -26 0
-877 -438 306 834 0
492 -224 -777 511 0
511 375 464 -724 0
-450 240 107 522 0
-140 -579 850 -91 0
-168 -842 233 -180 0
-564 -356 -642 -757 0
478 213 308 -299 0
745 -126 -354 -761 0
643 499 -275 -759 0
4 -345 14 -166 0
566 74 -662 855 0
-308 858 -281 684 0
-837 -576 -209 711 0
-606 -830 737 881 0
-207 790 30 832 0
768 -31 589 -744 0
-194 426 -387 -464 0
446 80 2 -143 0
831 -33 138 813 0
-276 629 -603 -558 0
-434 568 -227 -432 0
-464 -630 74 -336 0
-301 28 -632 -169 0
872 -405 370 445 0
-113 -563 -393 253 0
802 -769 366 -753 0
-597 777 -162 655 0
-832 -95 306 623 0
834 561 -332 -3 0
740 214 852 -801 0
-563 409 -493 -145 0
-481 774 -247 240 0
-713 86 -383 -704 0
118 267 -714 801 0
219 -66 138 -896 0
-452 508 -667 446 0
-383 515 -53 -62 0
-320 212 -597 -87 0
-548 423 -175 647 0
562 -468 100 -47 0
132 -339 780 466 0
147 -885 439 842 0
382 -270 -184 -724 0
56 190 515 -443 0
713 -20 -692 -335 0
-297 -808 -158 -28 0
-328 -757 603 -580 0
256 -211 870 -758 0
33 -328 238 -890 0
-387 144 671 -29 0
-78 -117 -777 -213 0
-234 -658 179 373 0
-163 250 -751 -613 0
130 -222 312 191 0
-439 813 -6 -178 0
764 -56 -748 -830 0
687 -485 641 888 0
370 -182 637 -484 0
-705 -182 393 -414 0
783 400 162 379 0
-427 308 -108 -273 0
-596 -715 380 -164 0
-784 -404 -445 737 0
706 717 418 131 0
-766 256 158 -297 0
-607 -155 305 106 0
715 429 -202 -763 0
-676 294 -421 562 0
423 -804 104 403 0
243 631 624 -771 0
363 -882 -230 690 0
-672 -202 -712 -473 0
134 389 61 483 0
281 550 629 -434 0
144 -396 750 282 0
408 803 -202 -607 0
658 285 859 -148 0
-720 304 -353 -769 0
143 767 -600 -882 0
841 -587 269 -518 0
-424 -720 393 -736 0
689 -27 -422 699 0
-34 108 399 -111 0
795 736 -253 582 0
200 -232 238 -279 0
494 -673 820 -211 0
846 -577 -559 -817 0
-445 506 615 -222 0
411 11 290 593 0
49 -869 320 -672 0
-576 -851 428 874 0
766 -75 -898 636 0
789 206 -265 -514 0
-160 -62 215 327 0
688 99 -498 858 0
-61 82 332 807 0
119 -209 898 139 0
837 17 -139 311 0
-534 -569 -823 671 0
-872 -648 307 325 0
623 -219 -447 488 0
193 620 -74 245 0
309 -630 114 -674 0
-256 657 -156 -122 0
-344 224 340 -53 0
69 -417 562 -260 0
672 -509 758 -320 0
-738 829 67 -725 0
539 368 437 400 0
60 32 379 -109 0
-357 680 -412 -214 0
-189 -460 -654 742 0
-371 415 -376 27 0
85 -302 -880 670 0
388 -522 664 432 0
-797 828 106 -898 0
-555 614 61 -689 0
-550 -145 8 -484 0
-892 -812 -676 -166 0
-159 -291 -14 -549 0
-621 -606 -610 305 0
-275 -464 620 822 0
253 356 -684 -31 0
799 454 -150 169 0
811 448 -297 -121 0
42 -614 778 -476 0
75 25 308 -105 0
309 -80 628 341 0
-98 -672 -269 295 0
-644 132 564 38 0
229 -24 395 228 0
26 690 233 -476 0
844 -677 636 743 0
842 -738 -413 -611 0
353 -505 804 382 0
-285 -192 590 755 0
51 707 306 -368 0
-387 -69 -746 -50 0
-280 -381 -455 -45 0
-229 429 680 -574 0
-226 -651 -21 525 0
-656 -628 870 -408 0
185 331 822 -898 0
-145 -257 -179 -218 0
727 -130 316 -114 0
-111 -336 548 347 0
394 -179 -855 -511 0
-464 63 245 -782 0
615 299 -368 186 0
-830 -143 538 -397 0
446 -402 -189 -707 0
-161 -615 -143 850 0
788 182 123 -368 0
-215 -487 -880 -855 0
-34 -221 -125 860 0
-842 -367 8 -190 0
-591 246 -659 -250 0
619 -64 3 -60 0
102 -386 150 -189 0
-505 66 -527 758 0
-594 -637 832 147 0
-223 -140 761 -240 0
-801 -548 -787 -78 0
251 455 14 -802 0
694 630 717 -107 0
-431 -729 -439 349 0
429 -69 -129 28 0
-329 -489 561 -57 0
-136 -252 71 692 0
-25 -396 -645 -846 0
204 701 -498 -127 0
-839 652 -530 738 0
86 -293 -867 156 0
251 -465 851 345 0
714 -153 -895 -250 0
614 -675 -642 515 0
-774 549 -731 265 0
423 -351 -584 74 0
-43 97 101 798 0
-168 -718 439 403 0
-893 -378 -66 825 0
226 -828 -255 501 0
-396 -629 -481 -421 0
169 286 834 -822 0
-417 -641 -142 323 0
335 -393 547 342 0
785 130 -769 459 0
758 328 -720 23 0
-276 -888 -142 75 0
381 -5 -191 151 0
878 707 -876 -717 0
505 -741 -581 475 0
-715 -672 54 -470 0
300 464 569 697 0
198 456 661 749 0
277 -325 66 -735 0
-405 -202 417 646 0
-533 437 206 5 0
28 842 862 51 0
-275 130 398 -837 0
-771 218 -434 870 0
-171 708 554 620 0
391 -9 873 344 0
898 -614 -137 25 0
-854 -54 -117 888 0
578 221 384 -52 0
-340 299 401 113 0
726 -658 62 554 0
-655 -776 -746 -753 0
-279 248 -66 357 0
854 -339 196 -535 0
318 -470 328 -361 0
-413 -529 326 -391 0
-269 37 94 623 0
415 621 -540 -711 0
96 -110 375 529 0
-116 88 -583 585 0
-730 -534 -207 -680 0
329 886 -29 -341 0
-660 -553 69 603 0
253 374 246 -254 0
-164 -398 410 -676 0
-573 45 69 -698 0
-497 620 -890 -214 0
528 -350 -210 -162 0
-607 -574 831 663 0
-728 63 169 -328 0
-245 -5 824 558 0
578 484 129 -740 0
886 733 -865 171 0
774 -119 -124 900 0
-493 669 -517 -400 0
85 150 -75 -50 0
692 298 -501 222 0
-870 -842 709 679 0
803 729 -438 -124 0
727 -625 -445 -359 0
-622 625 -741 698 0
-17 -18 630 -731 0
142 -691 -389 -699 0
-712 -187 -131 858 0
-721 -14 470 -22 0
781 117 -343 505 0
-39 -764 719 -99 0
-10 -32 517 -34 0
268 865 480 -345 0
327 -296 520 513 0
-111 -291 -585 -413 0
-728 -518 424 649 0
24 898 213 94 0
418 -434 -374 -150 0
-879 -607 -171 738 0
-706 753 692 -674 0
-683 -765 -387 809 0
-287 -214 844 -147 0
-59 -661 713 743 0
223 391 613 -730 0
60 59 740 -39 0
567 455 -534 117 0
46 -178 540 -660 0
-344 557 615 -775 0
-269 -724 -226 -649 0
175 547 -659 -26 0
-651 440 533 -69 0
-470 -715 -263 788 0
-76 -849 884 -91 0
799 -760 251 9 0
-634 516 -298 -143 0
-684 -433 621 239 0
776 -746 107 -416 0
508 491 408 891 0
419 242 -443 -558 0
671 -407 -795 802 0
-189 436 443 446 0
-705 200 459 -660 0
192 564 657 -617 0
299 595 -598 -248 0
-638 -489 492 -477 0
-304 26 563 859 0
325 -31 75 -728 0
800 -397 -338 495 0
-605 884 361 -889 0
664 -117 862 -316 0
-45 -5 736 -618 0
-458 -575 -856 -504 0
-18 -793 145 -604 0
649 14 -66 -660 0
586 773 -24 -412 0
233 872 194 -418 0
173 43 -14 -802 0
268 -805 -177 395 0
463 373 -245 -481 0
829 335 507 -801 0
680 612 -377 418 0
-556 -505 808 -214 0
-339 -742 68 288 0
843 429 363 895 0
806 304 576 760 0
-440 -646 -164 -876 0
-307 531 321 -247 0
538 -483 -5 521 0
419 790 824 -625 0
893 747 -441 -612 0
742 -810 313 327 0
-545 276 -411 -475 0
177 777 -618 201 0
-502 146 865 605 0
703 -5 -248 576 0
360 113 363 -40 0
352 -24 -674 -190 0
-67 143 476 -611 0
230 769 -504 636 0
-743 -103 -115 146 0
171 411 -367 -190 0
692 -390 -188 -826 0
229 -542 -198 568 0
266 648 775 442 0
-599 238 332 -97 0
-367 -321 -774 701 0
139 -486 -191 -557 0
395 98 864 -144 0
434 -737 -740 781 0
178 772 435 30 0
453 402 -164 -15 0
-618 853 442 247 0
76 -447 -763 -506 0
-631 842 605 553 0
429 452 234 -693 0
801 235 848 -795 0
-353 -871 -93 674 0
-249 411 305 376 0
-244 -110 -253 -262 0
-190 -621 625 66 0
644 265 199 -88 0
-630 -382 231 -815 0
600 -496 -122 695 0
-118 690 479 620 0
463 219 -878 166 0
-762 55 -749 -516 0
564 253 -407 581 0
446 -797 496 117 0
-500 2 453 659 0
-83 -383 -885 202 0
182 7 135 795 0
569 -628 -36 -219 0
-609 -324 -516 410 0
279 -9 -620 800 0
-696 357 -305 641 0
-555 -518 99 -46 0
177 -74 -50 -893 0
-103 -559 318 164 0
-371 816 -242 178 0
-771 689 -397 -536 0
10 244 551 579 0
-252 756 390 -615 0
-498 -439 -494 -189 0
735 103 -800 -52 0
276 575 374 893 0
-329 107 -185 -222 0
800 599 -772 -83 0
-373 -431 -621 484 0
-615 -191 -465 439 0
120 -705 -774 -692 0
-599 -363 411 110 0
-452 -557 -225 -26 0
867 873 -538 490 0
223 -704 -672 -735 0
-305 -807 401 -391 0
-697 114 74 -825 0
-688 -105 384 191 0
-755 -432 -213 -426 0
552 -579 -397 -608 0
-573 799 -237 4 0
-657 234 412 747 0
186 765 149 799 0
-172 -495 -60 393 0
-52 -387 761 -703 0
-526 -161 -288 -492 0
714 598 -792 411 0
539 628 -747 810 0
292 -596 -630 460 0
-110 503 128 114 0
365 530 -756 98 0
-10 444 79 505 0
-321 -417 883 -250 0
-473 -376 853 -361 0
-429 -612 313 -624 0
588 860 217 539 0
55 -402 -544 171 0
-512 79 437 -506 0
-228 -822 708 -200 0
-629 -882 540 -338 0
-617 -855 -58 -249 0
-529 796 341 516 0
241 697 -613 601 0
-751 224 619 648 0
-109 449 829 -279 0
900 69 645 757 0
889 432 184 -109 0
-39 125 -713 -556 0
845 -213 -741 -792 0
-795 54 -618 -249 0
678 -755 346 794 0
314 -372 -808 594 0
576 768 -626 620 0
193 -337 667 -779 0
-212 -221 -637 482 0
124 491 673 -232 0
-136 667 -176 662 0
-538 811 -860 740 0
-190 752 -241 445 0
-665 -810 318 298 0
-278 160 -686 685 0
-377 -8 715 616 0
-121 -685 -754 528 0
-9 -628 -822 590 0
-635 -724 67 -198 0
859 -333 96 -701 0
881 -78 -684 -842 0
632 274 -186 768 0
-248 492 392 -729 0
-178 -794 -172 584 0
96 855 -67 641 0
856 -637 -813 237 0
-153 -302 3 -388 0
196 207 -826 -308 0
214 484 -380 105 0
-261 750 39 -520 0
-256 745 -576 -181 0
-22 461 276 -210 0
778 874 573 -649 0
279 -492 -864 647 0
-895 433 291 -335 0
-337 46 -265 -469 0
-607 818 603 -349 0
282 -292 -758 748 0
441 -461 -604 552 0
469 718 874 -876 0
53 88 -867 268 0
221 818 537 -267 0
-345 -402 -492 850 0
-79 -556 -746 -518 0
300 -268 577 741 0
377 -626 656 446 0
285 332 -778 18 0
-810 -235 497 352 0
-183 815 575 -446 0
-340 -821 -457 -128 0
883 699 880 -247 0
177 774 386 896 0
779 775 256 -530 0
-573 -890 -54 -688 0
-861 87 -23 789 0
616 -342 87 826 0
516 881 -378 -151 0
386 -778 -487 -50 0
-199 766 -433 221 0
-413 521 -800 -613 0
-74 -691 -155 -201 0
863 761 49 -460 0
-888 -366 -473 -439 0
402 456 552 321 0
-620 -501 834 -508 0
-280 -701 294 -666 0
-602 -363 -869 195 0
-29 -772 803 -246 0
272 -894 -154 -24 0
-612 -456 360 205 0
668 -796 -213 61 0
-585 -872 -285 757 0
154 -248 763 298 0
-342 -671 -673 -433 0
694 134 422 441 0
-14 883 38 -267 0
-62 754 252 835 0
80 81 615 -706 0
-322 83 89 561 0
-459 -807 -284 -412 0
96 523 659 -783 0
-473 751 598 -422 0
151 726 -629 -17 0
615 601 -384 -18 0
239 709 -238 -4 0
-293 -876 -18 324 0
-179 -160 69 260 0
-386 34 -316 497 0
93 -260 -465 -751 0
-310 848 -132 -3 0
765 -895 689 171 0
859 366 85 -551 0
-318 -888 -886 -509 0
-376 -79 518 -691 0
429 -791 326 548 0
-795 -551 374 -654 0
-898 638 -827 635 0
813 -78 175 568 0
-887 114 -386 -472 0
-875 100 602 226 0
-734 -784 43 750 0
-887 395 194 -266 0
161 106 706 -623 0
782 868 -54 861 0
-159 -484 198 -303 0
-256 -86 -341 -657 0
229 -40 -195 61 0
688 730 -103 49 0
-311 -680 787 -321 0
768 -820 313 334 0
-189 612 606 101 0
-350 -157 57 427 0
106 24 430 -108 0
631 96 18 61 0
-652 136 -164 681 0
-428 -845 516 -129 0
654 412 175 -666 0
150 -32 542 199 0
764 -4 12 354 0
649 361 -505 133 0
162 150 32 -48 0
-348 631 506 753 0
-149 -625 359 -91 0
-694 525 823 658 0
-410 17 -826 390 0
187 269 14 -429 0
824 -409 710 -622 0
86 -650 -515 747 0
-210 37 -97 -399 0
528 573 504 -544 0
436 -714 -629 639 0
427 -663 -132 -142 0
-745 889 -199 570 0
682 772 -458 -82 0
338 125 779 739 0
784 331 748 -252 0
-604 729 772 125 0
239 316 452 132 0
-419 486 221 -655 0
748 -404 506 9 0
835 642 -542 767 0
153 608 171 -377 0
163 -539 169 735 0
-158 252 383 -215 0
-745 306 698 852 0
626 -409 286 332 0
-589 -334 -851 -487 0
490 -331 353 701 0
717 -638 -501 282 0
66 -723 652 299 0
-439 455 -331 779 0
-505 435 -264 -343 0
-786 367 798 -657 0
-614 438 244 -740 0
-755 -517 838 189 0
88 777 -755 336 0
149 130 -537 288 0
-615 -172 492 391 0
447 671 711 51 0
-282 -9 -813 209 0
342 -892 225 -450 0
-765 -498 107 -355 0
600 -158 403 42 0
-845 -413 649 718 0
-405 714 -874 813 0
-728 544 841 -358 0
-514 -374 756 -44 0
329 740 871 804 0
690 510 -465 -349 0
187 -427 -267 223 0
-296 767 405 3 0
851 352 85 -683 0
-517 -67 468 495 0
307 -99 -813 -315 0
283 635 -555 183 0
-345 -679 -585 488 0
-597 -38 493 20 0
-726 216 -654 -856 0
-505 105 345 881 0
850 597 -273 787 0
-711 -247 306 -886 0
-53 -680 -49 -113 0
235 -785 -295 630 0
-269 -711 -550 496 0
-345 -411 261 107 0
-317 98 -403 547 0
-322 -156 -244 882 0
855 794 -691 768 0
309 -853 -500 -371 0
807 -544 -792 -269 0
219 760 -754 -671 0
477 105 -258 411 0
261 748 505 686 0
298 128 570 358 0
222 -512 -291 -382 0
-624 -845 398 -104 0
-867 -41 -777 108 0
-662 -277 589 35 0
-321 322 -697 101 0
593 830 800 -243 0
412 694 -256 -362 0
690 -815 -365 -721 0
-137 -547 -552 220 0
840 -110 -772 199 0
878 318 -169 -505 0
689 231 -322 492 0
65 -712 275 533 0
684 12 -681 -53 0
644 -448 864 374 0
-871 351 -186 686 0
-271 725 798 820 0
440 598 107 91 0
171 -78 -271 -642 0
111 600 501 809 0
-830 634 -886 314 0
645 -280 387 -382 0
-294 79 113 534 0
-713 -351 88 -219 0
347 148 60 212 0
-222 -456 -858 740 0
-287 883 -509 83 0
-268 -678 535 250 0
114 190 -454 -174 0
494 -900 -797 405 0
-11 -432 678 681 0
-387 -148 759 619 0
68 -652 -427 190 0
-866 -529 405 575 0
228 -46 -232 -847 0
-411 -263 630 -440 0
-331 736 -702 771 0
816 817 583 34 0
235 306 134 345 0
-700 55 127 -566 0
-407 558 -146 -594 0
-341 253 69 613 0
-350 -176 -412 815 0
775 -26 -564 -725 0
-886 864 618 238 0
848 306 -197 -699 0
-246 -823 335 -872 0
-223 -791 -707 -723 0
-49 828 -784 91 0
377 526 -651 -597 0
-828 -777 -884 618 0
-717 28 197 34 0
311 76 -133 -260 0
-402 260 554 -829 0
-245 459 -395 573 0
-469 -476 -887 -684 0
333 672 -864 732 0
863 239 -82 -655 0
271 595 -811 431 0
-512 -271 890 349 0
880 45 601 -311 0
-120 555 95 -353 0
53 466 -609 799 0
307 -823 -489 424 0
590 -485 402 -315 0
350 -473 -154 525 0
-216 304 -520 -346 0
11 -624 520 265 0
12 864 -445 389 0
-666 736 884 418 0
488 35 640 -786 0
384 480 42 -776 0
386 229 509 480 0
-72 -687 -805 -88 0
-134 568 -612 430 0
-669 -172 295 -207 0
807 -147 -221 -632 0
411 834 -726 29 0
265 -725 -233 -697 0
-350 -449 -551 -402 0
352 -249 -494 733 0
-260 544 848 -570 0
110 120 593 -647 0
371 -359 -319 -147 0
-779 -310 136 374 0
435 564 -543 -653 0
-235 -740 -605 -134 0
96 637 735 334 0
795 -591 678 -135 0
532 -509 208 847 0
-582 371 -817 419 0
-402 -318 308 118 0
-519 -7 -483 5 0
-320 -347 702 82 0
672 -771 -4 85 0
-69 -408 283 -543 0
-890 -276 416 -426 0
101 365 -176 -416 0
-53 -236 889 -739 0
-753 556 -825 194 0
-146 244 706 -569 0
-815 91 -886 -266 0
498 -78 275 760 0
-472 -8 -98 374 0
-868 -495 -686 -136 0
123 869 -576 -159 0
-153 -579 461 -862 0
-489 600 -349 518 0
-647 -381 -331 831 0
-455 -86 290 -616 0
-471 310 -713 -880 0
-575 -831 -479 -847 0
82 -530 559 244 0
-811 482 -746 461 0
-492 176 -770 265 0
881 -312 638 -474 0
488 113 -346 416 0
-693 664 -45 855 0
