c Random CNF formula
p cnf 10 40
-1 7 8 -4 2 0
9 -1 10 4 8 0
-1 -9 5 -6 -8 0
8 1 4 -6 -10 0
-9 3 8 1 7 0
-1 -3 2 -7 -6 0
-10 -2 6 -1 -5 0
-3 10 -5 1 -8 0
-8 3 -10 7 -2 0
2 -7 -10 -4 -5 0
7 -10 9 -4 2 0
3 -5 2 9 1 0
-7 -10 -6 4 -5 0
3 1 -7 -4 6 0
2 -5 7 -6 1 0
-8 -5 9 -10 6 0
8 -2 10 -5 -4 0
5 -1 -3 2 -8 0
-7 4 8 10 3 0
-10 -5 6 -7 4 0
3 2 -9 8 -1 0
8 2 -5 -7 4 0
7 10 -9 6 8 0
-9 5 4 7 -3 0
-3 -7 -6 10 -8 0
-4 -2 5 -1 -3 0
-4 7 -5 -2 -1 0
-1 6 9 -2 7 0
-5 -8 10 -9 -4 0
2 9 8 6 3 0
8 -9 -3 -2 -1 0
-5 -6 -3 1 2 0
-7 4 1 9 10 0
9 8 -3 -7 -5 0
6 -8 -3 -2 7 0
1 10 5 3 -7 0
2 -4 -8 3 7 0
8 1 7 6 10 0
2 -6 -9 3 7 0
-8 6 -4 2 1 0
