c Random formula
p cnf 10000 1200
171 5811 -672 8875 6517 5071 8328 9881 2397 5730 3641 -6566 -936 4346 4189 0
-1414 -9185 -3881 -3702 -9996 -2740 1037 5519 6567 -9510 -8295 8229 1341 3696 -5871 0
6371 -802 1242 -7824 1950 -4271 611 2337 -7441 -6822 -8487 7111 4506 -6598 1713 0
-2340 -7436 -7116 2951 -4089 314 679 5965 -2737 2970 -6452 5644 -3153 -6488 1617 0
7398 -3225 7113 300 -1292 7233 4065 1217 1988 7135 6075 4795 1114 -801 -4110 0
-2787 3243 7929 -5186 5394 3661 -4704 -5336 5132 6784 -4002 6701 -489 1324 6296 0
9302 -2753 6366 4027 5163 8808 4510 -7577 -2963 -3375 -5132 1643 -6451 5715 -8946 0
-3608 6253 -6263 -5324 -7619 526 -2337 3 4083 -742 4593 -986 4873 -2204 -1976 0
1259 1043 1408 8615 653 -9381 -2419 -4655 4370 381 1506 -5946 6629 275 9703 0
-4621 1543 -2122 -9715 3433 -957 -4949 6684 9579 7334 -612 -4774 8071 -4069 4690 0
5543 -6900 -695 3573 -4985 6948 5466 -5541 -938 -6590 -6669 7762 782 1087 5590 0
-6283 2405 -731 6684 8198 5337 -9077 3434 8624 -340 -8114 -9076 -2618 -862 6177 0
5498 -319 802 -6460 -3522 9101 4081 9356 -4813 -624 -6462 3390 -7141 -6872 7550 0
-6878 6093 -6424 -9977 -4651 3827 2952 8679 -6411 9300 7067 1921 -3057 8923 -1411 0
-2024 -8733 9668 -5784 -8626 1419 2477 -8073 6850 -9539 1661 -8589 -2203 4628 7464 0
4866 -6995 -7450 -3620 2060 5396 -6837 4578 8468 -6618 612 -7975 367 5896 -7672 0
8915 -1357 5706 8413 -7515 9990 1407 9096 -2840 7494 8400 -2517 944 605 -4162 0
-9051 6298 -3989 2010 9699 -5567 341 -3886 -9999 145 1899 -9213 128 3135 -6670 0
-8254 964 -1906 2679 -7640 -3272 8405 2809 6842 4219 5459 4374 5175 -3729 -6629 0
855 8655 5094 2857 7822 4919 -4271 4302 -1489 2611 -8062 4195 -3807 -900 97 0
8548 -6637 3342 5728 -6821 -4608 6086 5067 5577 2458 -8294 4643 1554 -7212 2247 0
-9554 8638 -7073 2002 4268 -1415 -9314 5622 -374 -8804 -7677 -4059 4654 -2975 -8904 0
-65 -3983 -3184 2932 2545 2510 -7951 8695 -269 -8420 -7224 187 -3133 -2684 7018 0
2051 3686 -1884 8055 -2170 -7779 3195 -7528 -5075 -9434 -7860 6168 -8934 -6315 -1132 0
-6094 1010 -1687 -660 845 -9190 -5713 1300 5382 -1543 -9974 9782 2104 -8677 -708 0
9004 2758 57 -4591 -7551 9839 -3930 -2716 7619 3002 954 -2410 5599 -6904 8054 0
5999 2512 1977 -6132 -4945 -3192 4203 -7900 7919 2945 1655 -1194 -7388 -2311 1861 0
-2967 -3662 -7125 3059 -10 -28 -5753 12 1732 6136 5700 4960 -6425 -9841 786 0
5473 3808 -3244 -8744 9552 -8549 7743 -4842 -3740 -176 -4191 -1623 6232 9943 9320 0
-4831 8751 -8525 6977 -3393 -8316 4251 9289 6380 -4878 -8635 205 7793 3252 2674 0
4927 -4415 1773 -2707 2534 9674 -4586 -6697 7397 9543 9461 -9488 -544 3064 -4928 0
-6554 -3393 9811 -3622 600 7171 2049 -2046 869 4493 358 -5169 9123 -8757 -9461 0
-3030 1420 -6391 -1161 -9283 3856 2320 -6878 604 2822 -900 -8880 883 9330 7598 0
-4480 255 5610 5745 7556 2111 -2430 -5399 5895 2941 -7584 -797 5515 1305 4871 0
1352 -8367 -1985 -8424 -8258 4372 8786 494 -8339 -6811 -1413 -8554 8279 -6727 8238 0
97 4569 -544 8234 -1207 -1532 -8070 6810 9659 -4873 7387 8678 -7875 3117 -1683 0
3606 -5528 1692 -1291 -7614 4525 3950 -7663 8725 -5595 -683 8532 -4948 -9669 176 0
-1509 -9441 -8573 -1484 6761 -4351 4083 5210 7125 -1985 3642 9318 5374 -2694 -6957 0
-7070 -1532 2173 5945 9032 50 3671 -7464 -1151 -5707 1324 -6685 7744 -1904 6495 0
-3571 8602 -529 247 5029 7098 3252 7289 -5700 3656 -1845 -568 -8776 -4748 -9329 0
-3362 -997 1568 -6002 3763 -5142 8848 7604 929 5181 -9753 5367 -6244 2285 9490 0
-3169 981 5130 -2710 -5452 -4760 -8711 -5835 7670 8761 882 4226 2095 493 -3721 0
-5719 -6173 -5693 -211 -7877 -1410 9361 -3683 3812 8407 -8675 8989 -7700 -9288 -8417 0
-4437 4061 -6958 -7253 8077 -5008 -5742 -5219 5466 2973 -8710 -2620 -6769 1094 3503 0
-1101 -5335 951 -1114 437 -7010 -2698 3080 -2075 -6816 -2899 7946 -3951 213 5766 0
-7906 -3023 -7772 -5105 1076 -3479 597 5244 4509 -7722 238 6525 20 -2742 -332 0
-7302 -9019 -3288 -9853 1932 3967 1173 -6397 2441 6659 8856 -463 -8566 -3604 -403 0
9264 -7429 409 7322 8233 -7729 -466 -8635 -72 -7284 -6492 3080 -2209 6731 -4059 0
-8747 7989 2479 -3824 -1971 5282 -4438 -1963 1796 1779 -7447 9419 -2764 6033 -5930 0
-4436 35 -4984 -4561 -7479 -2152 3727 1940 -4157 1722 -5350 5747 5773 4806 8703 0
-8642 4199 311 -4930 -5673 5834 -6968 9252 9363 4476 -5428 -9727 5938 9255 -6393 0
4434 5494 5060 -9652 1956 -2574 1540 -5712 1197 -5273 9084 6428 -9886 9089 4516 0
-8837 -5049 5565 -9188 -4462 -6817 3797 -3343 4251 -3171 -518 -6953 -777 6155 532 0
-8755 -2152 6035 858 -8770 5300 7901 1028 6795 8800 -1345 5369 -7071 -5688 -4832 0
8567 7156 -3272 10 3291 -5232 -6433 6985 8146 -4134 609 -1700 -980 -9416 8452 0
2805 -8517 -8344 -8557 -4323 -709 7234 6975 -2916 -1926 -3575 6252 -6514 8634 -6336 0
-9699 7623 -3696 886 7024 -3330 7689 -8123 -2095 -596 -4806 1907 -8656 -518 -9723 0
-968 -2880 6102 3457 -9213 9963 -6041 -781 4504 -7871 6883 8356 8714 6275 -1917 0
7077 3584 -8915 -1255 2307 9410 1239 -2474 -7713 8324 -4824 -4958 6392 -7729 7373 0
-3334 299 -3903 6117 1975 1083 2412 6081 8304 -6106 6094 -1893 226 -3970 1859 0
-5782 -3900 -8444 -4162 -9638 534 5725 1618 7058 -5486 5662 -6208 -5144 5260 4827 0
-7323 7977 5459 8949 4897 3534 8429 8460 6445 -9952 -4929 -3311 6331 1664 1683 0
-7743 3662 -6429 -7356 -597 -6864 -3681 -2352 1761 6952 8926 2527 -5368 -8363 -7626 0
-5946 7236 4324 5270 6450 5785 9817 -1136 -5255 -8916 6100 -5052 9041 -809 -2144 0
-4050 8654 -7325 -2855 2182 756 -3632 8733 -8167 -4563 7890 -6229 -7735 9829 -7413 0
-7838 6887 -1337 -3859 -5900 -3899 1551 -4889 5580 -2187 5753 -5058 3031 4111 8486 0
6941 -8633 8099 7533 6422 5980 -8600 -7401 8798 -4849 -2375 5096 338 5359 -7126 0
5191 -8654 3888 826 9949 4113 -9797 1028 834 6139 -4415 3876 -9007 8380 -5176 0
-5853 -4589 9754 -2725 -6101 857 8315 3126 3658 129 4286 -5500 -8745 558 -8572 0
-7525 9960 -7299 -7789 -8685 5769 480 -8572 6686 7824 -1421 5465 1593 1908 -9044 0
-2647 -9897 2637 1439 -8803 6785 -2900 5435 9287 1234 -4187 5126 5787 592 -3268 0
868 -5899 6271 -3584 -8323 -2455 3657 -7568 -9554 3632 8264 -5520 -8819 6121 -2948 0
2483 4129 1026 -5160 -5245 6061 8957 -1846 -1040 4044 3068 -4777 -7177 7199 -8856 0
-4418 7321 5457 -192 482 9130 -2771 -1638 -9209 -1500 -4275 9375 -4060 4781 6261 0
1298 4375 -5710 6363 1711 -7370 4485 3175 -4315 -4883 5717 7119 -3807 -8334 -8955 0
-7789 -143 4222 -6465 4494 -393 -5635 4368 -2078 -7148 6786 -6539 2727 2105 5211 0
7221 6696 -8887 4286 -9329 -6688 -6614 -4160 -9038 -8210 3123 9108 -4442 3388 -5997 0
-7305 3085 -9679 1497 -5171 -8859 7948 8970 1615 -3946 -5108 -9636 4741 -2188 2931 0
4904 -1676 1587 -5464 -7559 -3809 -2608 2906 2625 -8517 -8420 -3039 2601 -1143 -6292 0
-3292 8072 -7538 143 5452 -46 -3049 -8134 -2742 9495 9876 2893 8691 7999 2096 0
8965 9175 -4554 -4294 1493 4830 1468 3913 -186 -3098 2465 -2811 -8803 7868 -1121 0
2694 -8112 -6734 -1934 5686 7000 3183 4537 -1201 5794 1402 3942 9470 2180 9613 0
4191 -8083 7770 -9135 -1000 5299 6131 -3588 3268 286 6907 4494 9461 -7036 8426 0
-1087 2572 7038 3768 9218 8971 8447 -9337 -8629 3572 1855 2288 -1660 -7001 -5535 0
6084 8115 8839 -1858 -739 -4079 8994 5088 3836 7011 3176 1178 3603 2404 6518 0
2889 -8023 9250 8630 4034 -7722 -5847 -7123 -4372 1426 -8165 -3970 5584 6021 2144 0
-3634 -4051 -583 3949 -3039 -81 3944 -4209 692 2678 -611 -6664 2762 -9292 -547 0
2942 8436 9356 -8799 63 -4276 -4414 3224 -663 -6025 6242 -6188 950 -1618 9662 0
6718 -1193 6789 5564 5879 8782 4132 -995 2241 -3040 1643 6418 -7953 6293 862 0
9245 -7569 -8152 3515 -1267 -9037 -8764 8005 1135 -1328 -924 -221 -4985 -5160 1916 0
-4272 -1680 -218 7068 7825 -140 1504 -2315 968 -6100 -8224 -801 -5271 -6284 2867 0
-7931 5865 -2381 5755 7166 -1639 -7919 -2825 6832 -9506 9027 -4283 -1863 -8353 3075 0
-2132 -2909 -1699 436 -9337 -8706 -5921 3618 4449 8962 7621 7186 -8983 5071 9445 0
3501 -1134 -1333 -712 2426 9144 2185 6278 1242 -3417 6136 -9881 4866 -2963 574 0
546 -5462 -7895 -383 -8999 -7407 3659 -5287 -9162 -7805 -3403 -6748 -2977 8180 2688 0
-5465 -4091 -1269 1954 3069 -5136 4181 -8813 -9942 6353 -642 4635 -4315 5499 6726 0
-3979 -4553 1994 -5330 -6718 -4145 -4160 5369 4876 220 5097 -1051 -7744 8865 1385 0
-1565 -4602 1794 -8638 5571 1345 4467 -3919 9912 -2409 5854 9844 3240 5683 -9786 0
-3323 6909 -5893 2719 -9052 -8202 -6758 -3151 -2406 9435 -4266 4160 831 6668 8950 0
2699 -8249 2989 3220 3078 -4442 9168 -5761 4960 -3686 2713 9036 -8460 -5045 -6598 0
-2498 -4385 -7333 -6079 4513 8792 -4602 -4098 7357 9247 9396 -2575 2758 -3276 -2598 0
-4907 -9915 -3758 -6422 3246 -5698 7841 3069 5504 -9547 866 -3599 -7898 9907 -3774 0
7751 6088 9564 -1743 -8377 -5404 9956 -5093 8445 -9762 -5477 3106 9397 5463 7291 0
-4755 -9158 -5807 -3615 1736 7929 52 3838 1296 -1968 -4632 1293 1211 -6855 4530 0
-4931 5105 -6751 5009 3650 3967 9335 -7705 -2956 1243 1010 -1457 -1331 -934 2811 0
-9825 -7999 305 5303 3115 704 -4785 9642 951 -6562 -8266 846 -2196 737 -8283 0
-342 5101 -8257 -4760 441 7355 3557 -6223 -3163 -2926 658 1206 -9420 5276 5871 0
-5828 6678 -666 474 -3267 -603 3453 2116 9108 9842 2370 -2187 -6605 -1540 8478 0
8117 -887 -1910 -3143 -826 5863 8739 7715 -9433 -4522 -1054 -3196 -7035 -8114 -9366 0
-2746 1059 -8730 9425 -836 9406 -2262 6471 -5335 -108 -750 3016 -2334 -8750 5181 0
-6863 4034 1239 976 469 -756 -5916 4895 2993 3046 5824 -5107 9141 1504 -8602 0
-435 9560 3577 -8278 6447 -2721 7687 -8388 -8909 4073 1146 8751 -9425 -4908 -971 0
-3712 -7466 -3348 -6780 -1572 -1588 -6313 -5101 -6490 -1896 3124 -146 -6996 -5174 -9027 0
-9173 7132 8590 -4642 -2533 333 -3360 2677 -3266 -8108 -2135 703 -2751 -6304 -2131 0
-7475 -9346 -6759 3552 -4088 6328 7995 -9326 -6511 9106 3373 9693 306 9033 -1264 0
-4959 -2986 -5746 5527 4303 -4357 6987 -4844 -1213 -2826 -2498 1947 -4266 9339 6718 0
465 5620 1309 -9993 -1740 -7743 -2330 -1902 1695 1237 599 4131 4340 -6213 -8039 0
871 -5548 -4379 4861 8102 7913 -7062 -1018 -9816 6131 1340 -1167 -7322 -7427 3386 0
181 8050 3527 1110 -3330 6038 2366 9442 9795 -6138 410 -3744 5657 4447 9729 0
5999 -5580 -5134 2682 -8062 1192 7697 -3594 -1602 4613 -5213 -4910 -3340 3620 -6369 0
-5991 5234 -6536 -4373 2717 -6756 3571 -9272 -7110 -5332 -6602 1873 -6245 -5344 -7196 0
8347 1713 -1313 5221 9411 5017 -6471 7037 9701 4830 -9772 -2685 -4188 -9213 1237 0
-8497 -2188 3459 2306 1933 -590 -6406 -4108 -4454 7253 -474 6568 8359 -481 4070 0
-4434 -6492 -5526 9180 8756 -5263 -6420 4624 -5788 6435 8129 7535 -2419 -1191 2922 0
3275 7983 8042 -7317 1745 -5429 -9837 -9523 -2548 -6165 -2221 -1454 -7107 2486 -1237 0
-3882 -6785 -204 5608 -3799 6927 -5595 6679 -9826 6956 -2425 -7901 6744 4538 8333 0
-9425 4361 -3874 9839 -4960 9462 -6068 -513 -3271 595 -401 7188 -1778 -4996 6162 0
-5710 -8075 -9992 7786 -9954 1456 -4537 -9138 -6892 -5946 -7084 -7799 8805 2838 -1573 0
3670 7473 -8592 5717 -4266 -9192 -116 -2751 -9549 2687 -3380 7044 5823 -3930 1707 0
6421 9119 1703 9648 -4746 3910 -4354 2004 8387 -2357 7357 -3251 3588 -1177 2519 0
-2473 7762 4485 5884 -5950 -8136 -5803 1886 -8180 -1278 9317 817 2762 -1392 774 0
2451 -1936 -8548 1648 1569 5099 3684 3000 3602 8501 8211 -8685 -1443 7699 8536 0
1986 6837 3734 -741 -9444 6010 -8069 -325 -1879 -3727 7940 -5191 -6143 6906 907 0
9278 7130 4349 -9537 1016 -5941 -7759 5789 7777 -1658 2582 5527 5283 5416 7437 0
-5838 2526 8696 -5835 1812 2671 -9323 6063 -4482 -8522 1517 -6112 1689 8907 -8141 0
5099 9572 -9638 -9514 -1317 -3522 -2183 472 -4318 -7474 6115 1427 -271 1124 1729 0
3375 -1071 3763 437 8015 -7254 8788 915 -8089 -3256 -914 -4581 196 6754 5063 0
-5398 8316 -7642 -3403 1560 4610 -9147 -577 -992 -3906 -1079 -1420 -2788 3465 -9515 0
8465 -236 1861 -5259 4490 -4223 -5569 -3290 -4831 7705 8162 -1056 4670 3108 -8123 0
-7590 9241 3591 -5377 5990 -2058 -447 -4798 3139 5391 -4389 -5529 -2065 3042 413 0
3640 -1880 7326 7308 2619 -9887 5515 -7419 9051 3178 -4903 -5632 -1143 1871 5552 0
-7213 3639 2915 -4600 -7344 -501 8470 -5934 -4261 -4330 -2270 4914 -3599 6688 9817 0
-1117 -7904 8409 7087 510 -2460 5511 -7075 -7088 -2441 -4718 -8349 -2991 -9251 -8672 0
-8669 -1874 -8084 5824 5597 -2500 -4945 5759 1726 -2253 5712 -8626 -7986 -1216 -2421 0
9092 -6301 -8625 -1023 3743 3573 5242 -3641 9731 8715 1282 2167 -854 -5229 8309 0
8551 -2709 8452 -2799 -5747 -4191 7300 6660 7677 -6443 -6071 -921 3399 -8836 -3575 0
-278 7067 2341 -9056 -1744 7687 -9755 -4148 9831 6655 3642 -3561 -5619 -1099 905 0
3344 -6031 4696 -8817 -3189 3987 2510 4217 -6973 -4220 -8440 -9838 -6617 6560 7938 0
1813 -7710 -4322 504 6241 -5429 -5725 -754 3009 -149 -9329 -3203 9989 3685 9499 0
-6335 -5465 -8749 -8832 -5039 983 1429 77 -7138 9315 2585 6005 -3775 -4579 232 0
-4756 6799 -6806 -8891 9715 5643 -2225 8756 8627 7636 -9857 3975 3495 -5915 573 0
-8756 7987 2181 1355 2670 -658 1769 -3200 270 9543 -8160 -4265 7270 -1856 -1251 0
-5997 8763 7971 -584 -1371 -7047 -327 -4269 1137 -4806 9174 -6074 -5242 -1404 7085 0
8727 2892 -8222 688 1348 -6188 4372 -7120 -6683 6524 -7878 5188 -4116 401 3398 0
7302 6826 -1305 9216 -8618 -7800 6646 8297 3588 5218 -2430 1187 -8697 8074 5172 0
216 -4968 4088 4208 685 -2047 -4399 675 -4100 -6078 -4819 9811 -9988 6628 8504 0
-2954 -1889 -2089 3062 5977 -3548 -4271 -2404 -7653 7789 -3455 9138 7693 -5325 7181 0
196 9248 2875 -8559 -6056 120 9675 1771 9024 -9060 -4717 6591 5763 -7308 2219 0
8562 2407 8530 3772 5662 8299 5265 -6919 -6780 3780 35 -3282 1806 -5829 -5104 0
9674 4862 7715 2351 -3158 9894 -9274 5056 -9728 3091 2991 -5140 -5852 -482 9478 0
1947 -8045 -8694 -2434 -7874 -2920 2794 -3362 -1545 8366 -984 8057 4230 5253 3187 0
4294 -7875 632 -9904 -3052 -309 4330 5976 -7445 4733 -6500 -7008 2977 -9413 1250 0
3863 -1448 -8363 -6960 -8245 8318 -754 5839 -7624 8613 -4991 448 -2600 -2655 -3428 0
1366 -9180 -5521 1655 2259 -6057 -8157 4994 -8461 4997 -9266 8090 -7971 -1901 -6211 0
6547 7099 2075 5443 -3880 2802 3999 1492 -8161 -5398 -7025 -506 5272 9160 -2366 0
-4929 6737 -5001 2513 2101 -328 2522 1557 -1107 6104 4086 5796 9521 97 -9173 0
3506 8093 -7695 7169 5905 -7543 5958 -1243 6597 -2313 -4610 -4096 -4852 1768 -6530 0
6611 5576 3291 9202 -7496 3931 -5052 3318 3055 -4223 -5645 -8834 9875 -8912 4913 0
3780 -2867 -3952 -1403 -2952 4541 -5724 -4072 3050 9863 -6034 -6316 -1172 8676 -3582 0
-3447 -2886 8256 -6730 -9196 807 8330 7048 5677 8862 -3386 -2351 -3345 -326 1269 0
-7199 -4175 5187 -7327 2342 5039 5379 7272 -7356 -2842 7776 -3320 -374 5188 631 0
2973 1121 -8917 9819 -8471 5372 4757 -5915 -4074 5208 -4028 -4799 -4069 7490 -7388 0
8358 5579 -8543 -2246 -8998 -6014 6132 -6713 9562 -8807 7567 2948 -8319 4342 7530 0
-9053 -1711 -9922 -2665 8345 9374 9788 -2688 7931 -1785 9631 8955 2055 -7780 -6646 0
-3922 -5787 3138 9299 4745 -85 8439 1758 8452 9895 854 -3787 7300 8588 -8301 0
-4961 -4056 -1456 -5297 1620 553 7686 -27 -4446 -8128 -7339 -233 3711 -9530 8911 0
-788 -9148 5817 3150 -2974 3487 -7683 -1894 6990 -373 2530 -1002 -8945 7954 -1920 0
4357 -7340 -7824 283 -9679 2936 6778 -3362 -2276 4474 888 -5455 -6542 -1241 3844 0
392 3689 8397 -8230 3207 -2473 537 2375 2676 7500 -1784 -6462 1013 -1821 6527 0
8175 -7864 -8425 7311 -8718 -3504 -7050 -2308 6759 -8757 7519 4382 521 5298 -4232 0
-847 -2877 7070 4394 7896 9328 6476 811 7158 8954 -6353 -3160 6994 292 1963 0
-2839 7610 -1548 3693 8747 952 -8044 -8556 -2428 -7596 -2413 9597 -7487 -5039 7499 0
3528 -3082 -4724 -2381 7792 -5656 -6922 -4265 -7902 5548 1341 -7384 -4464 -6108 4270 0
-8867 4476 -9739 6875 -2621 -9063 8109 -7941 -924 6643 9912 -9107 5262 2197 -8668 0
-4047 -3344 912 4648 -4930 -8203 2973 -2311 5583 -8175 7876 -5002 7999 -7543 -239 0
2836 -5837 4869 2684 6469 5659 -3718 -2107 5520 6189 -1222 -47 9575 9906 -4576 0
1418 7193 -6631 -2424 1635 2183 -6845 -9946 -2494 -5141 624 -6030 9934 2575 5668 0
-9347 -628 -124 -1756 -66 8694 -1736 8965 8570 -4648 737 6095 8491 -3850 -1626 0
8921 -4711 4975 9561 6382 7715 1897 -4352 -480 -921 -333 7947 -7280 -9332 -3654 0
9655 7125 -6944 3326 5580 -5625 -5812 -9078 2799 -8156 -2938 -4737 6692 -4741 6303 0
-1358 -715 -643 240 8657 -5214 -1920 -2156 9515 -4338 -7619 -7213 4975 9107 -1890 0
-9654 6374 2545 2850 -2940 -196 8244 -606 3671 -450 4170 -1273 835 3811 3695 0
-2680 -2402 1306 -9566 1218 -2790 8547 7935 -7389 -2692 2357 9856 -1141 -9797 3275 0
2819 7731 -1169 -9080 2993 -1644 -8797 -3403 6021 3327 5890 48 -2323 1609 -6388 0
1009 -7577 5664 -7248 1479 108 9268 295 7652 7072 1118 -658 -2081 -119 -9699 0
6524 5934 9772 6651 222 -5074 -4405 -6256 -2103 -4227 -3837 2041 6447 -5345 -9622 0
9010 -2702 9354 2715 -2695 -5168 866 -5427 6537 -9890 -9229 -2368 9323 9815 8262 0
-2700 -6924 -639 8621 2613 8538 5223 8402 2091 -6727 -2692 4259 -2065 -8187 8717 0
7259 1142 -5434 4303 -234 7869 4945 -8734 7006 6885 -1598 6839 7296 -5636 1708 0
-3082 9530 -8568 -4823 -9290 -8180 3554 -2294 -9665 1978 4176 9001 -9469 4439 -8640 0
5811 1809 -897 6361 8762 5151 -7108 7686 -477 7136 -103 -1419 2865 7142 2017 0
-2720 -7882 -7898 362 4968 5230 2117 -5833 -6684 2880 -7649 -6949 -6305 -5592 -9193 0
6847 8904 -2996 5366 982 -8516 6225 -2976 7910 269 -5651 1772 322 7901 3549 0
-8152 2218 -4160 -8923 -921 6336 -1897 178 -2532 -4953 -9127 -2353 3667 9819 -3926 0
3807 -5749 -6760 -6434 -3217 -5572 -4741 -340 -4158 -4109 -3992 2347 -1957 -5454 -4713 0
-7767 -8041 -9127 -3331 6140 7284 1008 439 -9251 -7280 9305 1456 4896 -6137 -9064 0
9036 6097 5617 5295 -2132 -4686 -5650 5517 8902 5207 1969 -5443 -1708 7866 -5787 0
151 9572 -9972 -8786 -3679 2554 -4535 927 -6237 -6973 -2600 -6198 -1043 9347 -792 0
-4199 284 7006 -1808 7414 8709 -2346 -7539 -802 -9034 3371 463 7825 8094 3677 0
8864 8390 9314 -9570 7083 282 9639 -5999 3936 8420 5402 5796 -4036 7000 8482 0
-9918 5276 8599 4099 -6153 -8856 1449 1220 -4647 6418 -6328 5911 -6950 988 -4276 0
-4389 -7776 6128 7469 231 6785 629 -6784 6765 5245 -7977 -4744 7244 2978 1830 0
9798 1089 -4477 -3270 8509 -4865 -747 -2180 3970 9345 -4239 3169 -4539 -4611 8412 0
8441 896 -3961 -9054 3107 1700 -6321 3100 -8648 7991 -6227 -3380 9441 -8004 5452 0
-1356 5355 7978 -468 9903 3730 -9504 -8554 -3930 8027 -5366 7246 2097 -5656 6027 0
-6368 -7375 1456 -8263 -536 -6 6273 -2012 2649 -3683 -1990 6264 2644 5709 7619 0
729 -2515 -8403 3699 1567 -7071 4862 -9984 -7326 -9014 -1213 -3549 -120 -6129 -4164 0
-7547 -1245 -3990 9268 7404 -2834 -8497 -7714 -3106 -3456 8786 -4421 6549 8941 6606 0
2936 -8860 4578 -2593 -3652 7798 7403 -5656 -6708 2694 2755 -8690 -4787 -8951 5096 0
-2514 -1337 122 8884 -7831 5817 2447 4118 3191 529 -2913 5025 8977 -5503 -1824 0
8289 -5959 -6282 2687 8150 5135 1686 -7366 3993 2748 -3978 9471 -8145 -6380 -9353 0
3171 1749 5518 1263 3589 9890 -9873 -5538 -9479 3818 -3255 -9758 3445 -8041 -2737 0
818 33 4581 -1498 -7034 2530 -2860 -485 -427 -8957 -1236 7544 8109 -7040 6013 0
-1295 -583 -2067 -7243 -9446 -682 7097 1569 6391 -4703 -7200 -110 -5612 -3544 -8735 0
-6925 2113 -4811 8191 -5443 6671 -7280 -9659 -7065 -4094 -6806 8275 1762 -9730 4621 0
1797 -6902 -6304 -7678 260 -7856 -3554 3185 6649 6663 -4330 -4352 2714 5792 6964 0
1557 8973 -1668 -2863 -3810 9995 5926 9307 -440 7773 7399 -7034 -9809 -3538 -2594 0
2460 2269 3051 3719 6692 -9699 -4863 -6453 4110 748 -8323 -2199 6354 -7038 -1675 0
-734 2462 -1474 5497 2062 -9445 -154 -7280 -5697 -5062 9077 -7985 9222 6416 -6384 0
-6991 4772 -4062 -9842 4867 -6759 -7132 6399 3245 9617 -6558 -7154 -7555 7763 6646 0
-7991 3421 -758 -779 3342 -330 9797 -8049 5294 6552 6661 -5458 3707 -6697 8259 0
-4160 166 7910 -509 462 724 5318 4489 9597 5122 6356 -8754 -2147 -1517 9223 0
-4847 -9785 -294 -6207 645 683 -6795 -1135 1104 -6444 5076 -5833 -3135 -6740 -8640 0
-9962 8789 -183 -2752 -9375 6677 -1399 -7774 3704 3483 9055 5593 -5394 -4015 2077 0
-5727 686 -2384 -8992 -8272 -1541 -2610 5914 -3739 -3650 3381 5099 5040 5716 -3745 0
2160 -3686 -3349 -174 -3523 -8078 -6560 -5904 2633 7674 4563 7212 3864 9159 -3153 0
7866 -2746 1920 2695 -5738 4888 -6550 -8955 -6785 9929 8533 7282 3068 9813 8065 0
7518 -1260 53 -365 1436 2373 4577 -7393 70 4133 9561 -6816 -5345 1292 -6085 0
-438 -6419 2013 -9276 -3323 -7055 -5065 50 2881 8514 -1090 -5364 2302 -3376 3483 0
-7723 3050 1000 -8109 -5175 9408 1944 -503 6179 6412 -5072 -9191 -2491 9414 -7683 0
-4800 3909 9389 1278 -8864 -1106 -8649 -3713 8740 7512 5334 1811 7035 -5649 6997 0
4054 7219 4803 -3728 4031 7125 -2137 8505 3305 6870 2045 -8141 103 9272 -8254 0
8103 3541 -1599 -9053 -9572 -2532 -2993 1853 -5953 -2397 -1371 -2949 -228 -6030 2639 0
-8297 -5711 -1880 9262 8434 9924 -5987 -9053 -9879 -8267 -7558 9483 6259 -6743 7606 0
41 2847 -7811 7689 -2396 -9313 3565 -962 -3733 1188 4450 3786 591 -239 8405 0
8156 -4257 -9352 -803 3412 -4256 -4191 9118 -2541 -9094 5015 8429 5405 -4986 8324 0
-6569 1100 -2586 -7011 4911 -8093 2890 -3331 2903 -4318 -8781 8317 6500 -6986 -5478 0
-4485 -1016 -7877 2076 -89 -8904 -6304 -7178 5186 5864 -5986 2262 -4649 -9114 6939 0
6380 -5934 -43 -9850 -1272 -1613 4154 -4514 -869 -7769 6646 1205 -1719 -4541 -2445 0
-1716 7058 9583 -8844 -5853 -1856 -4207 6672 -4109 2947 -2367 -9601 -5366 668 8535 0
-3418 5084 -6141 9711 753 7490 -3238 5021 7367 906 4525 -4563 1139 2210 8814 0
7623 7988 -2508 -947 5679 -6163 7938 3749 -3463 -3893 6623 5218 -5537 -4801 7372 0
5872 588 -4787 -2914 -6309 -9116 -3742 -3995 7520 -5294 -1397 -8135 -9095 7453 40 0
3842 -5215 -4613 5228 7096 1913 639 7985 9844 -7469 3115 -6174 -1307 -2483 -9677 0
4371 8632 -7644 304 -9988 -2980 -3288 6241 -6392 -2039 -7629 1 -290 -4299 -7558 0
-4286 -5097 -1457 2996 -2447 -7620 918 -2715 9374 1276 -5690 -5136 2127 -7742 1515 0
9488 -2609 6169 3202 -857 -8279 6661 -2862 -8194 2814 1571 -5566 1855 1424 -9750 0
4567 2284 -5281 -9343 -995 -4229 -7032 -7759 8256 8371 -9594 -6766 7297 4892 9850 0
-9579 -7150 -5049 4373 -8514 -2705 -8978 -9796 -9251 7187 -5600 -6693 -3241 7115 1017 0
9415 5968 2807 8442 -5578 7724 9784 8160 -5239 -8251 4381 -1782 726 8108 7426 0
-986 7252 -9887 -2066 5523 8385 -6129 6021 6821 7123 60 5923 3187 -7610 1162 0
8960 -2986 -4518 6282 3626 5079 7547 -1955 -8564 -3556 5812 4076 3777 -1444 481 0
4633 -6447 -7245 5239 -7675 8636 -88 6336 1660 517 -9205 1188 -1144 -8329 4284 0
-8536 -4834 -75 -9563 8375 -4245 -8848 -8454 1064 3608 2198 6376 -3451 7351 7479 0
-8753 9742 -9751 7657 -377 -6184 9050 -4314 -7717 -7224 6887 -7671 -7384 -8570 4640 0
-954 2331 -260 1204 -99 -8076 -5072 1920 -1043 -7688 3614 -1979 -1779 -2979 1285 0
1413 9708 -5114 7047 -3923 -738 -6489 1784 1548 5416 -6437 9918 8930 -1225 7906 0
4899 -9879 1653 -4210 -3225 -4752 -2826 5300 9106 3642 -8666 -6712 -392 542 8951 0
7388 -3562 -6218 -9699 5558 6507 277 -3237 7093 -4013 6256 -5247 -8476 1681 2026 0
-9123 6366 -1208 1311 -8244 -9262 4095 -501 1051 666 -6569 2603 463 1374 -8683 0
3381 -9888 3443 7474 5822 -6640 -3040 5182 -8335 -6278 -923 3222 5767 8483 -9596 0
8804 1204 -9755 -8936 -2764 8803 11 -2481 3605 -3782 -8198 -3591 3867 -421 5095 0
5991 7033 -4197 -7480 8898 2031 9253 -4590 -3536 -2326 -7898 -3530 5756 8068 8945 0
-4193 8488 -3975 4494 -3540 4086 3313 1973 9473 7225 -4480 5755 -1862 -8471 9570 0
1301 6704 394 -1633 -5194 -8724 -6134 8005 4284 6221 -9152 838 -5880 -4036 -7850 0
-135 -8687 -2014 5981 7477 510 -1827 2734 -5781 -4333 -2185 -3314 -4779 7309 896 0
1281 -8416 -4943 -8615 -9700 5387 5065 -4077 2921 -5724 -4389 -4146 6160 -9658 -8912 0
6054 2634 1071 -9121 -2712 2683 2929 4444 5252 -9754 6279 -3516 -8654 415 -9532 0
-9302 -8638 -822 -2237 -4108 9516 2700 5126 -4093 -2828 5838 -2479 433 -2637 -9759 0
-4381 -6712 1648 8202 -3718 -8605 -472 9948 -8105 7871 -6392 7933 -28 -2569 2479 0
6977 -503 9878 -6716 1753 6618 1669 -1050 -4718 -4980 2822 -2487 8050 -559 -1187 0
-9935 2720 9802 -7273 3749 -1308 -4741 -7214 8900 9005 8033 -5654 -937 1634 -8850 0
-9321 961 -6980 -5649 -1042 9843 -4793 40 8348 8094 4352 6297 -3125 -7726 6694 0
-7359 -4959 -5530 -2727 -1696 -6222 -4076 3151 -3816 3631 -7776 -1389 -7456 -4490 -3985 0
3762 -948 -106 5028 -4008 -2038 -6804 -2517 8629 4068 6233 -7336 2232 2450 296 0
-6785 2455 1303 6550 7311 6341 -1991 -5981 8472 8156 8111 -224 3734 9987 -7718 0
7956 -3561 -7597 8694 -2082 -2508 7954 2351 -287 -3934 -2978 9673 7554 -112 -7318 0
-6038 -1219 2754 -6707 -6169 566 9248 -8011 -5617 1677 896 -4645 3726 2240 9611 0
1292 5934 2376 3888 2105 7033 3729 -357 -1632 5569 6426 -8651 -2078 -2558 -1374 0
7742 2052 -6061 -1686 -9520 5272 8297 -9102 -1790 -2166 -7822 3399 8959 5696 61 0
-861 -3403 4617 -3006 -9369 4861 -5037 15 -870 6588 -5066 -5267 9163 -6743 -35 0
-6279 3784 -785 2170 9710 184 6406 -7486 -3931 -5671 6887 -9181 -8170 4872 3389 0
-4611 6291 -7596 -8070 -5113 4240 733 -2920 6083 1050 5044 1469 -4783 1717 7781 0
9793 -95 -197 4257 7303 -1691 2526 4007 -6655 9488 9008 9308 -3789 -1850 -8751 0
8632 -9809 6682 -6392 2922 -1831 -1529 -8195 6831 7551 -4796 -4861 -2221 1409 490 0
1885 6317 -5455 -3137 5710 -4060 -4587 -3417 -7854 9582 9561 -7097 4271 -1476 9502 0
-7188 9326 7895 8970 -8378 -7881 9979 5459 -3821 9160 1140 -7862 4762 -5927 4789 0
9385 -5844 5564 4889 -8679 -6606 -8678 4183 9289 5241 730 -5090 -9679 -7369 2510 0
5106 4807 8390 1510 -5242 9325 -661 -3849 6278 -8106 -8436 4779 4355 4057 3338 0
-5852 -4815 -4838 -4895 3718 6810 1574 -1604 8679 -1834 9281 -7020 7388 -5300 3929 0
2950 1748 1760 -2488 8683 -9855 5467 6842 -9323 -8737 9511 2943 9787 -2852 7216 0
5927 3603 -2034 -7552 -3453 -4028 2290 4461 -4733 -4226 7617 -9190 -2217 -3908 -5196 0
6034 275 9352 -3803 6295 6122 127 6867 -791 1395 -1819 6501 3932 7265 -3297 0
7283 3751 9208 -3067 -7085 1691 -8625 -6461 7176 3884 9827 3218 -2222 773 -5212 0
96 6268 -6506 8732 6853 4511 -3743 5828 -6897 9067 976 842 8465 4894 -6437 0
-3564 -7613 -8796 -8106 -881 9646 8334 -191 -3846 -3770 -9586 -1802 7073 -4002 -924 0
2669 7969 7540 -4150 -8693 -7073 834 -2550 3145 -6135 -1451 -6208 672 911 -315 0
-4538 -169 5228 -6417 -8286 -4545 -4361 8232 7896 -9549 -1 2572 4932 -2165 -4242 0
1371 6379 -5654 5651 5417 -4018 -2099 4768 3974 809 -3638 2358 -766 -4229 -6259 0
-1687 7111 -4214 812 -5127 -2249 2738 -1470 8033 2395 -6266 -8169 8362 -7444 -1260 0
4051 4723 -264 -2816 9125 -8838 3679 -4777 2800 -4400 -6176 -4125 -9679 -3547 -5556 0
5513 -7562 -3182 7841 -2483 -2754 8790 7544 3600 -6412 -890 8292 7084 -737 -6226 0
-5403 5528 3769 -1476 -4855 8794 4637 7319 2076 2900 8979 -7408 -7881 66 -9151 0
5778 5279 7086 4959 4124 -5789 -6848 7792 -9761 979 -3022 994 8253 -5459 2519 0
1640 7855 -8706 -1810 -7460 8195 4466 1251 -4220 8700 716 7552 -9480 -9810 -4976 0
8382 -638 2651 -1554 4833 7220 -2873 6846 -7196 7764 5614 -4176 1748 5942 1179 0
-4208 613 -2586 6752 -2461 -807 3141 -7850 -8731 -5782 3677 -3098 -1430 -2535 4725 0
1759 1367 -8648 -4855 6713 1483 221 6905 7974 -8747 -2406 -489 8054 -4807 8301 0
-7017 -6553 7961 -2748 9245 145 -8527 5857 -9673 -9768 -6886 6500 4748 -1683 -7171 0
596 -6727 5895 -6133 2023 -5328 -9827 8044 -6975 -2474 8477 -4704 9808 -1884 7215 0
-9566 -2028 -4698 -5571 -2360 -8239 4694 1704 4644 -2300 -9160 -4034 7192 -4866 -7232 0
-9449 9320 9754 -7179 1918 -2171 -9256 9629 4191 777 4453 4976 -5160 7474 -7323 0
2058 -6363 -3914 -4527 -7773 -5770 -940 -5220 5510 -9192 -68 -7400 -995 -7636 -9343 0
-5827 -6919 8457 -9560 338 2783 -7947 -8165 3838 2730 -4707 -9463 -6111 -8066 -6544 0
-8495 -6313 254 -4370 3338 5584 145 -1200 -7532 3252 -7680 -6490 -5200 -529 898 0
2108 5512 -3999 -4652 7061 -3716 -9972 -2894 2653 9368 6385 -8521 -1696 4092 -5552 0
-6333 2804 4231 -6925 -3470 7343 -6487 -2304 1299 -1443 7293 -9324 8072 4575 3810 0
4747 5611 2162 -7410 630 -3897 4255 4009 5699 1427 -3362 -1866 7180 -3506 9490 0
-8746 8971 4886 5789 4884 1638 -8181 2341 8196 623 3950 -6009 -1173 -8518 8762 0
-4786 -5858 -1344 -1499 9811 -3049 -5344 -5551 -1061 4808 -3531 7480 5520 -6200 -2498 0
-7703 2311 171 -5622 -6465 -9323 8102 8774 2335 7709 5405 9655 9559 -2370 -5110 0
-7905 6428 3891 -3865 4288 -2932 5147 8782 858 7330 3850 6094 -2598 911 -7071 0
9977 8405 3875 -9016 -1743 6118 -5646 -4501 8562 -6294 1673 -2301 9090 9 4452 0
9003 4262 -5439 -1322 5142 -9556 -4321 -464 3491 -9456 7661 -2614 9034 1263 -5603 0
6610 4844 -7759 1019 -697 9167 2877 1320 8032 -9607 9399 -8618 -6309 5852 -3903 0
4754 8803 2589 3531 -7290 5955 -9066 -1090 2699 -924 -8188 4236 -8647 8217 2169 0
-358 -464 3698 -952 -2934 -9779 2459 -5487 -9741 -3572 4888 -508 3236 3882 -2132 0
-7939 -7264 -1563 2515 7711 6786 -7828 8850 8310 -6235 -1984 5352 4890 -7634 -1998 0
-2180 -3396 -1702 8818 -2408 4481 -8666 2673 7891 -1249 -89 -5428 -6169 -46 7284 0
5986 -7089 -9623 6421 -8848 -3272 7191 -8706 -3897 9568 -5424 1204 -4169 8949 -3354 0
-9987 -6431 -266 -6625 5445 -4985 -7353 1156 8557 -5123 -6911 -1629 -5794 -9427 3808 0
5079 -722 3391 4645 3303 1329 -7436 -2095 -6380 6576 8243 1030 8703 -4506 9715 0
-2083 -4907 7618 -4336 5339 630 -6102 4323 851 1459 -4598 -4777 -4344 -2664 -6889 0
3557 -6975 -7330 816 1264 -9046 -1722 8022 -6830 -4787 -4400 -5553 -6340 -3360 -6816 0
3277 -3727 -6128 -6978 -3063 -2178 3617 -1635 4335 760 8194 -5439 -5079 -5938 9621 0
8113 5865 6344 -4790 8512 -5812 -1909 9261 -2196 9343 3791 -4658 5818 3240 -5589 0
833 -4123 2556 -8319 523 -6548 7283 -4643 -2864 -9000 -1399 -8184 7744 -1901 -9693 0
-5237 9663 -5641 4564 2540 715 658 -9323 -1424 -9787 -8564 3060 3527 -7390 -7265 0
3702 -5809 4948 -7607 -5960 2551 5561 2641 -8110 -709 2175 5126 -2419 -7473 -7810 0
6534 2725 6854 -1817 3593 -1186 -8714 -6072 -6533 6336 -6998 7835 -1496 -7404 7088 0
-1665 3902 -6539 2089 -4405 -2377 6899 239 7011 9992 -2360 9862 -3318 3751 -7887 0
-8971 -7290 -8343 -2044 9584 566 -9356 8403 1589 1485 -2320 -8538 3489 7691 8739 0
8634 4509 8293 9816 8578 -6884 -6049 -523 -3048 -5498 -4721 8729 -7945 -192 -6678 0
-462 -402 -2268 887 3585 -6034 975 -1600 -6559 2855 4365 2458 -4489 -2122 4885 0
4735 6679 -5935 -3652 -3734 -6192 5834 2997 4713 6647 -1845 9030 -4425 3592 7854 0
8720 9632 8931 4616 2827 -449 -1982 253 -4664 6474 5775 9645 -9805 -4446 -4919 0
6078 8421 -4148 7017 -5915 2689 1720 105 2354 -1340 -8656 2743 -2229 -471 8887 0
-7131 2060 -4880 -2351 3125 -1464 -2882 -731 6134 -7057 -1787 5301 2782 6925 5634 0
6627 -8379 -4929 7435 3965 3606 7100 -3635 2666 5591 3750 -9971 3671 6972 2301 0
-2080 -2913 6123 -4590 9572 8008 -5159 4660 5119 1114 8249 3780 6474 5272 9341 0
3628 2923 9551 -2628 9444 -8827 -6664 1742 -4989 8495 -1289 -7606 1457 -457 -3446 0
-8286 7303 -4288 -8764 5183 4619 4726 -3233 -5832 3898 1157 -6254 6644 3524 -4769 0
2907 8955 -2351 5863 -3981 5435 -3116 5755 1091 -5037 6783 4503 -1211 -9071 1736 0
5007 -6419 -1347 -824 1504 4005 879 -4683 9602 -8868 4758 -4998 -2866 -5500 -2517 0
-8255 903 -4070 4666 -1940 -5213 727 -3981 1301 -2873 -2832 5498 -1499 9752 513 0
710 7915 -1222 -5741 -9660 -2082 9948 -6125 -8827 -2484 -265 -3248 -1992 9238 7350 0
5843 6926 -2510 -8546 -2731 -6773 1858 2410 -4420 4007 -2413 9375 -2876 4550 7698 0
3465 8698 9719 3491 -5412 1404 -1151 -2191 2751 5443 -5359 -3506 1599 -3250 -9615 0
1741 -9259 -5951 -80 -6259 -3432 3884 -327 -3862 -8097 1745 -7442 -71 352 -3414 0
8041 -6344 -9110 624 6342 1230 -7711 -1757 928 3175 -4988 -852 585 -3346 4200 0
1984 -4641 -7900 4099 820 1796 9976 4776 -1166 -9477 -6741 7925 -3282 6867 3361 0
7257 -1695 -9007 -8861 -8544 -4506 -6159 -1876 37 -5388 -7188 -8440 5592 -1683 -3375 0
-5922 -1063 -6753 2898 -9857 -8343 -7268 -5735 -2467 7001 -7535 -3393 -544 1053 2497 0
-3372 -8593 6541 -1176 -4017 -9328 2514 8383 748 5505 -5965 1394 9094 6576 396 0
7710 4633 2622 2537 2292 8740 4488 -7800 1879 5523 524 -2138 -8958 1726 -4114 0
7894 8241 -873 -5247 -9204 -6271 6501 1436 -1414 -3341 -7725 -2739 -4313 4939 -1910 0
5789 -4116 -8542 3069 5306 8105 9345 -1637 6987 -4345 -702 -6585 9113 9207 8888 0
8976 7085 -5553 -5706 -1402 -7598 -6459 8944 -5656 2085 -3337 -7044 -7410 8285 7129 0
8609 -9935 -5546 3310 3294 -7855 -1827 3466 -5335 9768 9299 7763 -8706 5860 1388 0
-6869 -3761 4380 -6820 4387 -2220 -7536 -4578 5171 1663 -2008 -7112 6259 -6241 -2559 0
1599 -7564 -4572 44 -1767 -6195 1531 -8197 -2430 -6910 9645 184 -9771 -8242 7968 0
-8062 539 -364 -9004 473 -8906 8138 2219 -4937 -8016 4271 1795 3127 -4706 -4737 0
-8030 -5902 -7462 -26 5498 -5062 -607 8437 -2639 2571 -1031 -5355 8191 -6594 543 0
2180 -980 3325 -7201 -2224 8470 2958 -460 633 4823 8275 -5892 -6804 1922 1990 0
225 2316 592 -2681 -4754 -4833 3785 9138 2985 6209 8660 8299 -2801 4918 -3164 0
-3196 2176 -5321 5328 -4826 5132 -3046 8443 -4029 8183 9573 -2021 8793 -3587 -4637 0
-857 4913 -8842 7570 -3075 1163 9369 4797 -4271 4988 -7351 8646 3996 5776 6954 0
-9883 -4774 3436 -5082 -2599 -4430 4622 3331 -8473 -2568 6896 -1548 -2410 -3053 -3425 0
1931 -5055 6820 -5138 929 -243 4111 3961 -4149 8252 2344 6489 -1210 9268 5983 0
7985 9242 -5972 6582 -9160 7131 3926 2743 5132 4209 -3895 2782 517 6345 9827 0
812 4163 -9235 -2167 5005 -4125 8981 -4075 6101 -3649 -5999 -4614 -6463 8674 -8967 0
-5715 377 198 6690 -6140 -1778 -3395 5081 -9898 4866 9519 -3185 4644 -2971 339 0
-8251 6245 1125 -3427 -7850 183 7013 -6485 -8161 5719 580 -788 9744 5383 9715 0
-6680 1161 1378 4442 6816 3030 -5378 -6818 5268 -9641 310 9814 4755 126 6275 0
5531 3543 -4331 -8188 -9941 -5245 3650 -3154 1455 4085 -7882 1203 2099 3811 -4108 0
-1239 -9099 4367 -9352 7736 9196 -172 5689 -8131 -3801 -556 -7869 7659 2564 -576 0
5522 -7226 -4029 8564 -6149 -4467 4484 -6452 7042 6481 8769 8499 -3633 -3048 -8096 0
1245 8599 -7203 -297 1799 -8103 3797 -2978 5588 8143 -1251 -4588 -6779 3347 -3438 0
7411 -8653 9606 1304 4814 -3751 6041 -2864 5744 -688 337 -9843 -2719 -3866 7552 0
-4161 -1059 -3969 -9683 8692 -2748 -7672 -8723 2296 2475 -9006 2468 -9226 -9573 -7456 0
-1868 -5707 8977 9309 -2850 9031 3567 -4371 -888 -5865 -4804 2387 1549 1299 -4248 0
-3758 2569 -4010 156 -8309 827 3329 -684 -6374 -7225 1523 -3921 8863 -4341 8348 0
-6715 -2665 9448 -9395 2832 -8352 1529 -4349 -2635 -4096 -1203 4322 -7401 -7902 -2892 0
3836 -9833 4435 3283 6268 8096 6993 -8361 3601 -9156 6944 8145 -3265 -8317 1382 0
-5998 -8762 5377 -1560 2121 -1213 -849 6064 -1024 2825 6190 -5202 2800 2793 -2231 0
8193 1288 -6684 -3670 5100 7228 1386 -3720 2036 7803 -8121 -3226 6132 4303 -4914 0
84 9563 343 1699 -3637 -2095 -9901 2525 -8092 -2654 4037 847 8666 -9456 7047 0
9583 -3365 -1676 3049 -6208 8624 -3602 7261 1721 -6244 -532 -7389 7812 -1735 2532 0
3195 -234 -8949 9354 6435 4198 -272 8385 -5883 -8886 -8814 6345 1731 -4830 7576 0
3299 2532 5797 -3755 7343 864 4370 1101 5691 -2988 -6435 2530 -5347 -6484 -6196 0
3485 6426 4775 1886 7394 7596 -4581 3361 7773 -6822 6118 -8924 3656 3481 -2654 0
-9439 -5176 -2554 2581 -9206 3348 3092 -6486 9687 -4155 -4139 -3324 -8462 -7618 -4551 0
-5100 3670 2361 -1239 -379 6630 -6331 -8904 5492 4560 8197 4009 8783 -7356 1647 0
-1209 5712 -5839 -9228 -5892 1472 -2161 -1845 -2879 5169 7082 686 -4835 -8821 4532 0
-7593 -6390 -9296 2700 3217 8985 3278 4536 7084 2337 -3048 -5565 -1764 4110 3680 0
7206 2295 -2677 -8862 -684 3468 -7059 9683 151 7814 3323 -4596 -880 -8759 -1703 0
-5393 -3736 -1475 7240 8278 4068 6103 -1282 -9720 -2739 -8354 -9899 -7719 4361 4608 0
-9524 2494 -7914 -4721 -2209 -8347 749 9679 -2019 5328 9101 -3488 -1558 3681 -4255 0
-6365 471 1619 8212 -8945 9761 9264 -6087 7780 -6151 1837 3019 1670 3038 -1699 0
-2429 8712 -6811 6750 -6503 1210 9905 9003 -8626 -6567 -7283 -2388 6983 -4326 -5131 0
-8638 -6161 5604 -3658 5179 -3276 9050 -5583 1235 7705 -689 9341 6049 6901 7898 0
2205 5855 6347 7648 -6337 1614 -4491 6007 -9843 -7807 -1159 -2317 -5772 -2989 -2664 0
2906 2821 8339 -6627 3068 4248 7336 -2205 331 1222 -9724 -336 -3790 7228 -5698 0
5151 2306 -12 -8193 9574 1877 8081 -6197 4433 -5963 -3108 2462 -5858 985 -4020 0
6840 5024 2054 8439 -9175 5570 -9168 5777 -303 1200 3275 8183 8909 6866 7271 0
5367 -8389 5737 2641 -7609 -96 7246 -4770 -4207 -6699 -7935 -1041 -8967 7423 2725 0
8206 8653 -3057 5591 813 -4529 -6306 -9603 -1473 -4693 -358 -7602 -1882 -1044 -5506 0
7705 2627 -7960 7953 -9022 -5486 6251 -8149 -4185 2577 7627 -6006 8947 5146 3273 0
-828 5380 -9564 -111 -272 -5420 8160 -462 -9371 -1401 -4516 194 -5689 -4971 1070 0
5247 2084 6335 -4031 6745 8329 8000 -2956 -121 -7381 8445 6655 8340 9039 5655 0
8974 -811 5582 1978 -5341 1555 1431 -1303 -1187 8075 -1314 -4443 -418 -5840 18 0
7653 -6129 1578 -1026 -5963 5140 8509 -2631 1103 -4233 4203 3160 -9345 -1035 1558 0
-7921 -8391 9521 -7393 2104 6729 9298 -6989 6690 -2906 8268 -3478 7782 565 8625 0
-9817 -4414 -8366 -1820 -7692 -7524 -3487 -6124 3013 7452 2623 2955 4446 6923 7141 0
192 6897 2732 -7880 -9392 8563 2071 7951 7937 -9190 -4141 5689 1212 2766 193 0
-5902 3336 8915 -3899 7891 -5025 -1146 6417 2895 3608 -9545 2355 -2752 9817 6563 0
-2920 -9108 2356 -4856 9897 6728 -1348 -335 -8116 6668 -1968 -6096 420 -4679 8025 0
-7312 1320 -2868 3198 -7774 -979 -8524 -2986 -4015 -4990 425 -2042 9551 4759 2271 0
-860 1765 -1911 -6609 8441 -1601 1991 5032 9727 -4836 -7755 1836 -900 -888 -8328 0
1414 7086 4921 -5195 -5949 -6393 6106 -5185 -9374 -1528 -3075 -3875 4118 -8921 -6279 0
5886 4802 -1238 -4786 -2479 8644 -4808 -6209 -9991 -9943 2627 2897 -4535 -8609 3000 0
3114 2118 6898 -5254 -6020 6946 -9003 -6792 3999 2774 -7509 8633 8207 -7178 -6787 0
4715 3315 -3951 -6968 6175 -2626 -9359 -2211 -3824 -9145 -105 2105 -4181 -484 8879 0
8904 -9245 -773 -8990 -4611 4777 -8046 9690 4142 3706 780 -7598 -3279 3268 -6913 0
9276 -80 4741 3111 -3709 -8834 -5143 6251 1905 -5787 4449 -4932 4411 -6121 -1182 0
-5784 -3092 1029 -5587 -7844 1399 6836 9873 1587 8577 3131 4518 4352 -4844 -7458 0
-5381 -660 7766 3260 8931 -8821 3871 1646 5007 9417 7427 1544 8145 5783 -605 0
7782 9645 -1090 -1300 -8202 7490 -2587 -3971 107 6703 8131 554 -5772 5268 3464 0
5102 2623 -8820 -4183 427 6914 2618 -9602 9989 314 3493 -4341 -7521 -1182 3438 0
-5237 9226 1149 -2115 6148 1796 -2389 -1025 -2415 -1762 -9815 -2456 6387 -2377 1766 0
5561 -2705 7525 -8632 3111 -9657 7108 9781 6773 4029 9790 -2462 -9515 1330 -9281 0
-4093 -8448 -3551 1113 2550 -7195 9305 7938 -9850 -3661 5589 -463 -6596 1839 6577 0
6998 553 -6628 -7668 -5262 -8510 -578 -4189 -8172 8239 3736 -6362 -4581 3581 -1141 0
5116 9809 -3918 8809 7557 -4898 4780 6913 1241 -4673 1596 340 967 85 -3452 0
-5239 -2586 -91 -1653 8482 -4805 8079 4374 -8536 -1637 -5340 1342 -8850 -7208 3843 0
9726 443 6759 8517 4561 8676 -9624 -8129 -8052 2057 5462 6945 -8723 -5874 9515 0
-7784 -7370 -6022 -9720 -1209 765 -5512 1072 54 631 -733 -8257 4980 8318 8999 0
-2391 -5163 8995 5879 4166 5400 -270 770 -1538 -6286 -8571 3039 9432 9922 -8260 0
1024 -6146 4287 3475 -1195 6871 4165 4093 9462 -4057 -7825 -4135 7788 1383 -7772 0
-8487 4221 -7192 3236 9309 4275 -8500 3096 -1184 9013 -852 -9709 8576 3782 -7323 0
-3962 2664 2084 -7881 9093 6239 9326 9325 3500 -7528 6760 8863 -9132 1537 -5112 0
7856 1305 8688 -2000 -5907 8104 2893 8482 8731 -861 -4966 -6752 -4136 -6604 9186 0
1502 6068 -9631 -8548 3387 6178 -6559 -5563 -9464 -4302 -2270 -4862 -7257 -8896 -7646 0
-836 2761 -9287 -9214 -3799 8194 9924 -8162 -4201 -2298 2594 -4715 -7099 2325 7220 0
2306 7842 -6904 41 4292 -9345 749 5253 -205 992 -820 3783 -1817 9050 8161 0
-7385 -3582 -6691 -1004 -2898 -2742 -5291 -8234 7006 -64 5349 4438 -2187 -1133 -8334 0
-7850 6313 9168 -1112 -4849 -6490 2653 -7763 -8966 9933 -9067 5301 4113 -1188 -8296 0
-5978 -4372 -6213 8304 130 3389 5026 2898 545 9903 -1412 4681 -5752 183 7145 0
8299 -5271 6273 -1211 2117 8605 -8953 -8281 3794 2271 5179 -8627 4347 1802 -6128 0
7536 2583 1256 2268 -9084 -7624 -7194 1350 -9821 -4848 -2310 9787 -8905 -4274 5571 0
-5334 -6770 -1523 -8679 -9691 7171 -8965 -2413 5104 4152 -9104 -7504 4663 -2692 -9176 0
146 1246 1916 3282 9171 -4971 -199 3466 5262 7617 350 -7032 3168 -2101 -2266 0
-8282 7066 4781 -4653 -4887 9451 7423 2067 -6892 2044 9323 8686 -1512 -3499 7220 0
-3581 2480 -1214 -8984 -849 -6297 -4086 -235 -9970 9139 3382 1619 1964 6675 -5156 0
9063 1456 9848 1888 -8163 -3287 -5005 6716 4048 3984 -8903 4619 -1305 -7077 -2319 0
-2510 -9551 -7064 968 7191 8052 9907 671 -3949 -3190 2089 -8788 8676 4233 468 0
2687 2887 -6518 8040 7134 7712 -1953 7251 8196 -8985 4719 7536 5942 -6085 8471 0
-132 -8498 -4666 -4516 -3126 -4795 -9777 -7529 -6280 8190 8006 3593 8573 -2224 1033 0
-9778 8728 -9672 -7900 2961 -6474 6760 -7329 8803 -4042 8042 -2056 -5062 -3086 2160 0
6279 -6344 -7918 -3823 -4541 6956 8051 914 -214 9002 -694 934 -3870 -398 3108 0
3481 6491 -4663 -5765 3834 616 -6965 7398 -9192 -8508 3336 -901 3232 -4244 -4835 0
96 -8874 445 -1450 3332 -5018 -1512 5473 -6254 -9677 -9421 549 -3479 1418 -3256 0
-6519 3203 9564 4251 9680 1179 -8666 -1183 -8856 -4145 -1908 3420 -9424 -6900 -8457 0
7874 -5689 -9496 -9516 -2081 3678 -6680 6989 -3449 8654 7084 726 1235 6309 -8467 0
-6503 -670 -3164 4001 4624 -1464 -5444 1204 -2681 6241 -6546 -1538 -7214 7817 5440 0
-9232 8721 -6144 -8055 3073 -8199 259 -7079 8931 -5640 3735 -8124 5817 909 -2584 0
-2503 1964 -842 8310 4006 -2417 1040 -6261 7699 6434 -1410 5252 2047 -912 -1068 0
-7276 7196 -9445 5246 -2670 2817 -6697 -584 2971 9796 8565 -9404 2866 -975 -2406 0
-4404 -9377 2458 -6201 -9420 306 -2069 4369 -4326 5708 8199 2854 4600 -5687 5488 0
5112 -1784 -6779 -1246 -5114 1823 7061 -8886 -6186 -4823 9409 -3679 8176 -9850 7939 0
-6166 -9267 -6045 -9639 -5822 5345 9218 5434 494 -4452 525 222 6442 -6615 -9329 0
-1592 -7235 2030 4853 4691 6511 -7239 -1796 -8253 8803 8479 -3870 3013 8483 8387 0
5904 -5759 -2339 6227 -6930 -1917 -856 4054 8028 -2906 4353 -7589 -5930 3335 -3876 0
-9939 -3237 -6348 -5152 -5040 -5450 6924 4529 -8560 4826 -1061 8987 632 5000 7038 0
9234 -6626 -4076 -6856 14 -7711 -7837 6421 -1597 179 -3133 4198 -502 4725 6360 0
8069 -8216 -8335 -3974 -7484 8043 -99 5917 -9631 9984 8109 -6142 -6578 2702 -4843 0
-2412 8557 -2404 -1612 -6052 -2699 6395 -6912 -7909 5651 -5408 -9301 4028 -539 -5286 0
-9598 43 2113 -3211 7136 7983 6160 -9547 -7699 -663 -7234 -6889 2102 1975 -4970 0
-1878 -4429 4783 2976 -4013 2764 -4296 76 5328 2784 -6317 6108 9265 -9032 -7545 0
7315 -5517 -3612 3982 -1782 -3724 -8212 955 1320 -3634 9708 5510 1122 -2321 6773 0
9553 -5028 5868 -3322 -4429 3826 1006 2490 1387 9814 -1790 -2205 925 46 -4295 0
5640 5085 2353 -3916 -8563 305 -905 2117 -7482 -1273 7420 -8760 -2917 -2857 -8823 0
-7119 5988 2615 -9301 8109 3099 -664 -9228 -7019 9609 2867 2428 -4554 -3279 -9510 0
-9552 -9974 -6459 908 -2829 -7879 9457 2894 -4220 5401 -1358 2099 -4977 -7439 5708 0
-6198 -3540 -4803 3520 -2149 -6687 -9378 -5928 6646 -481 5367 4795 -8862 6068 2895 0
4007 8238 4784 -617 8987 -7906 3176 3942 -8345 -7815 -7309 -7790 -6270 -3796 6555 0
-7989 -5801 -2114 6586 4089 5940 5081 -1861 9139 8871 180 -5929 -5073 -8925 2872 0
4789 -4038 5166 9931 -9511 5153 6197 1246 7402 -1752 7097 2912 176 7316 -476 0
-6618 -4969 7489 -3962 5452 1698 9145 -1222 -5895 -2854 -156 -4678 7129 1238 945 0
-1921 7974 6276 -7207 2255 8839 -6518 -9924 -5807 5768 -2503 -4299 7951 9412 1343 0
-8501 -8111 3483 8820 -5076 -8337 -554 6872 7342 -868 -4684 8727 -2460 2263 -5929 0
2256 7554 -706 -5458 -6885 -5139 9188 -8627 9317 1191 3011 -1094 4631 7903 9516 0
-5330 -7449 -7388 -1285 597 -1993 8622 4490 9274 2677 4385 -6798 1112 9319 -6059 0
9794 -9183 6758 1430 6205 4501 4954 3354 2965 -8348 9773 6948 -7103 -469 1080 0
-4710 342 -1359 -9490 -8269 1872 1327 -6213 7363 -1715 2045 892 9761 -8450 -8967 0
-5613 3429 -3114 9757 4309 -9326 5873 135 -9146 -6538 -5678 -4375 2455 1009 -24 0
-2718 7923 9492 5926 7063 638 466 -8538 -9786 -218 -3091 -5550 -5037 8969 6754 0
1428 7770 7792 -3597 9909 -8103 678 -824 -28 -1631 9485 -349 5489 -3228 -5004 0
-4322 -4515 7548 -7217 4627 -1807 -1554 -8926 -4073 -7978 -3201 -388 -7408 3920 -3124 0
-8798 -762 -4432 9004 -6152 6157 -8834 7193 -1316 -4667 -4420 -3304 -9424 -7409 -4120 0
-1254 -2563 721 -3815 1215 -602 -8600 5085 -9817 7820 437 3987 16 2865 9822 0
-7153 3443 7327 1272 -2003 -9040 -3295 -2054 8709 8915 -583 -6128 1989 5233 -7853 0
7199 8984 -9165 6240 5271 3189 462 -8541 4281 4984 -8512 1398 -1507 594 -6116 0
-9269 1704 7998 -8320 2187 8793 -6849 6196 8623 -5819 2668 9615 8370 198 5852 0
-1851 7732 -5973 9603 -3595 -7336 8878 9440 4851 7353 -2003 7674 9472 9252 -1424 0
-2238 7559 -1492 951 -2087 2386 5560 3881 4197 8303 2561 6702 -4877 6847 1081 0
-9016 -5161 5684 -3099 3800 -8232 -6754 -959 -2432 -5033 8011 -5382 8000 -4009 9379 0
6686 -2508 -6493 -5787 7746 -726 1201 3138 6292 7335 -315 2522 -5424 -816 1890 0
-1981 4585 7730 3619 3280 6880 -6851 -9370 6236 -5408 8817 -9535 -5721 1265 -8434 0
5514 -7903 -4813 8962 4521 6734 -2053 -2238 6240 -3646 -1706 -5975 9005 4124 1825 0
2736 8393 5383 -5989 -2964 5036 2497 -4441 -5133 1585 -2972 2667 7349 -9642 8106 0
8703 7492 -7514 -2228 -4595 5499 4216 2822 7410 1901 579 9088 2891 2036 -6657 0
-4118 -8215 -5898 -2444 4796 -8817 -6915 -5690 -731 -6661 -1902 3931 2047 -1416 6973 0
9382 6040 -1408 5468 1094 -3935 4905 -9516 -7038 8532 -2012 1770 -7276 -4186 4253 0
-3454 -3838 5219 -6556 1781 -6746 1076 -3821 4400 1447 8854 -6610 2559 -2108 4580 0
-1178 -1663 -4008 7934 9001 2807 -2915 -3680 1525 7269 9324 5854 8090 -4156 9573 0
-4869 -8709 -9005 2396 -1640 -5401 -1671 -9955 6219 -8227 -3930 -698 8963 -151 -1275 0
-35 6138 3435 2796 -7050 5711 1829 3523 -8726 2624 1546 -9273 -2382 -1411 -2375 0
-3832 -2704 -7703 8741 -8906 6256 5047 6382 6328 -1675 1911 -9328 -1933 -9033 -1032 0
-9913 -1590 5603 -7734 444 9288 -1684 -4095 -7287 6601 -6259 -1069 -9858 -4141 -7140 0
497 -7921 -5164 1903 3600 746 4866 3676 7468 9534 5387 6871 5780 -1608 -6170 0
1290 2745 -329 7495 -8783 -7124 -3923 6993 -7353 730 -2292 -2017 -9430 4235 6255 0
8347 -1509 6354 7092 472 9951 -8128 8490 5193 -7580 -4656 6800 4994 4629 -3071 0
3010 8920 -5665 5722 -3329 8497 -321 7104 -1194 -7352 -4533 -6132 260 -3223 -7497 0
4913 4430 6302 5541 2215 -6182 3091 -9352 151 5554 -8254 391 -2395 4600 -3037 0
6749 9828 1209 7415 -8473 2194 1733 9536 7015 3069 -9816 7777 -4007 -3351 5379 0
-3146 2566 -2572 6275 7360 -9510 -1033 -1056 802 -5212 1567 1432 -3493 854 3205 0
3917 2708 6967 -4708 3444 -5997 7513 -8392 4443 2243 9257 -1824 -8855 -845 6381 0
-9003 6331 1575 2598 5835 -975 8932 7463 6433 -3177 1411 7299 -2276 2710 1021 0
9736 1604 4588 -4217 7833 -4315 7866 -8574 6484 -9360 -7490 -9034 7408 -6119 1976 0
4336 1733 3276 4625 1317 -2427 8568 -6240 1749 2760 944 -8805 2514 -7499 4894 0
-9582 1698 5999 8255 7905 9942 -3120 -2182 3591 -2374 4586 3442 1508 706 6824 0
-7531 7769 9864 -4722 6613 -355 1641 -9736 -6773 7139 -9080 -3671 3011 -8352 -6814 0
-8130 -8827 -5814 3076 -2722 -1017 2718 -6662 -163 -1179 -7055 -4092 8655 -7153 3040 0
-5697 -1281 6293 -4314 -8043 9614 6743 -502 -4380 9323 -818 1944 998 -7743 7961 0
-1360 -7070 727 -5468 5010 -1948 8606 7645 -5213 -3705 7883 -4212 -2087 4068 9668 0
2162 2856 1945 -8721 -7787 6714 -1466 3863 -2471 -4923 4830 2661 9360 4846 -370 0
-4869 -840 -5903 -7252 450 -5268 -7760 5481 8581 -5153 485 71 -1624 3475 6881 0
-1799 -105 8432 -6794 -2986 8085 6409 -6706 71 2805 2513 665 8027 3938 -4610 0
175 2405 -5208 9466 -3717 -1836 -859 806 4908 429 -5604 -1910 -8970 -3687 2306 0
7786 -4530 -4254 -7309 -7571 9873 -4877 -4078 -4187 2428 8465 1168 2505 -8567 -246 0
4821 9739 3521 8673 -2515 -2127 5453 -491 -5994 4996 4341 -3410 7164 1932 7745 0
-9199 4640 6377 -8491 -2126 -7436 6166 2243 -8797 1683 8900 -2501 -2412 -6160 6499 0
-7028 5288 4566 -4910 -2863 -2068 1509 5550 5059 -3100 -2061 -1855 -5530 663 -5415 0
-728 802 5931 -13 -9891 9904 -2686 4275 -9669 -7393 3781 1737 -8934 104 -679 0
337 -2185 9880 7674 2254 4872 1018 -2393 9030 -7684 -6316 -6814 -4763 -4784 -992 0
-3017 -4729 -7440 -4052 7613 3713 2442 6419 2457 5113 6135 -4746 7659 6720 8781 0
-9355 4280 3982 -7478 5049 -7867 8657 4430 80 6675 -6603 7467 7054 1307 -9639 0
-4671 -3756 -6134 -6965 2325 4986 -1622 7341 4116 -4068 -8659 -9046 4754 -701 -8203 0
-4173 -2361 -6513 7770 -2238 -8659 6950 1003 2680 906 9003 2918 2164 9941 -7506 0
5278 8348 -2555 -5949 6144 -3058 -4427 -651 -6160 3089 6236 9781 8275 3319 4981 0
1632 -6911 609 -8658 -3816 750 -2155 -4822 -8649 7575 -3794 1428 -9104 762 -4108 0
9593 2223 9430 -4317 -4912 -6574 -6212 4926 -9737 -9457 492 -1926 -8567 -2053 -3883 0
5576 -9492 -1273 6063 248 -6472 -2017 -5972 605 -4882 -9513 -7923 -9488 -2529 -1571 0
1749 9939 5899 -5397 1668 -3704 9935 2668 -1810 -6892 7004 1966 -8543 -6825 5774 0
-3746 7173 -4566 -1750 1884 1649 4476 8150 9263 -4199 -9151 2744 -2078 -3846 5681 0
-4399 6356 -8368 -724 -2187 -2694 2093 -7127 -3982 -5107 -2649 -339 6412 -9848 8202 0
-1650 -5297 -1070 3991 1204 6178 -2962 -6168 6110 7629 1634 -9537 -9724 7554 3076 0
-6608 -2751 -7841 -8302 2643 -7859 7901 -8651 150 3464 -38 -3116 -2826 -6025 -2169 0
-7244 7901 -780 -6617 -5971 -4127 -4539 6250 -9982 2225 -4563 9991 4772 6581 -8270 0
-5341 -6792 4752 -7923 1627 713 2766 2974 -5090 -802 2894 6427 -3634 -5553 -4803 0
-8153 -772 9816 6098 8300 5886 -1862 -2970 3305 -6203 -5821 -2933 4193 7572 9288 0
-8832 -3238 8423 -5641 8471 5363 -7935 5156 -8918 -3589 311 -911 -1381 3624 -420 0
-7603 -3843 -6683 4510 -6805 318 1123 2828 8983 7209 6553 9727 6602 -4357 -7961 0
5900 -9503 4284 8793 -358 7606 -7411 7493 -2821 -5803 -3762 3379 -2109 -7555 2274 0
1119 9300 -5772 -5705 -847 6593 7705 -7678 -7111 -9578 -1654 7380 -4578 -7510 -6867 0
-3259 -2742 -5335 -4208 -9118 -1069 -1733 -2905 -9935 -1432 2276 5802 8149 7080 -2732 0
3287 9022 777 -425 -370 621 -2179 2031 9900 7037 -658 387 -5429 -5750 926 0
9583 -9470 4955 -1771 3147 5365 2962 9036 9010 2368 -6847 -394 -7856 -4154 -1337 0
-5292 9665 -7763 7903 5633 -2849 6200 -8089 4469 3817 -8199 1112 -9470 8860 8944 0
-8594 6902 -9188 8277 2995 4945 -305 -5262 -3066 3554 -3207 -3208 -9836 4106 -5210 0
6457 -5285 -7933 5240 -8143 4997 3261 -4230 -1342 1049 9893 -9376 3038 2123 -8094 0
-6628 -9652 -4235 -118 -1868 -4503 1540 1651 6069 2902 -6252 5820 8207 -1988 679 0
3475 -1614 -6151 -2466 6567 5041 2035 7479 -8440 7403 -3341 3154 -5291 -3635 -3262 0
1969 -89 4177 -1685 -2809 -7860 7238 -5496 9982 8285 4657 40 -5688 538 -4147 0
-8696 3076 -4222 3094 -4148 2354 7364 -5095 -3825 1424 -2484 7466 -9425 6076 1982 0
-8751 5996 -4556 -4808 -9588 1586 1212 -4276 -3420 -3549 -1568 -1687 -2607 67 5600 0
-5853 -6233 -6952 8770 -4245 4098 -4815 1534 8212 5602 -7385 -6044 -9398 9580 -3556 0
8147 -3094 -1600 2045 1606 -9206 -5089 1329 -5427 -7467 -7219 4042 3303 -6298 -848 0
-2271 8147 7677 2790 4683 -2672 -3256 266 -3086 2388 -828 7786 -1545 -9462 9747 0
-5129 -3886 9762 1589 -6396 1553 1500 5907 8419 7594 6122 7760 -9109 -7984 382 0
5852 -5609 -6859 9091 139 -7945 1924 9989 8691 8205 -8538 2361 -1056 -1565 9043 0
-7350 9453 3096 9066 7248 -704 -4553 4377 -6398 -8197 -2052 7313 -4913 -4213 -5610 0
2207 -7267 -8076 -1491 -4782 -6074 -893 2341 9584 7129 2837 -5454 -28 -8692 5498 0
-5650 5227 -2120 8056 -6688 7767 7271 9870 8807 1254 -9345 7967 3359 -2966 -3177 0
9170 5138 9209 6955 -6644 5397 8017 120 8358 4182 4600 3421 9794 7342 6645 0
-9420 7906 -2755 4514 9852 -3248 -2456 5498 7534 5971 3579 -817 4789 411 -5094 0
-8285 -1710 -1294 -6817 -5985 -5240 1729 -3057 8918 -9265 -6086 1641 6165 -8435 -4605 0
-2714 -2385 8895 -8537 7193 3114 4893 7511 -9818 3015 7213 6117 -951 -2751 -6657 0
-3338 -1488 198 -8932 -7912 -3018 2064 769 1691 8887 -2563 -706 -80 -6861 -8605 0
5314 -6925 -15 -1629 3387 -6977 9593 -4496 6336 -9950 8406 1599 8041 -920 -8844 0
-9145 6118 -1472 -6344 -9651 -7411 -2679 -3193 8401 6405 -6278 5609 -220 -8463 8636 0
5802 7679 7746 -9239 9674 -4331 199 -2141 -323 -8172 -7153 5855 -3767 6990 -9298 0
2567 -9156 5665 -3727 9806 2230 2861 -1728 2001 3103 9684 6991 -5454 -4124 -3450 0
-6152 -6663 8396 -4783 -4231 884 -4527 8921 5002 2819 -4717 9541 -6478 -9478 4763 0
-9705 -5979 7389 -2510 -412 -5457 -8379 2988 5672 9550 -9369 -4410 -3994 1762 430 0
-9155 253 -9578 -3666 4574 1016 -8893 -9422 9217 9732 7426 5390 -2903 -6635 4899 0
-6596 2084 -6467 3843 7075 4303 6783 5718 962 -7363 -2580 -9538 -5877 6638 -5244 0
6756 -7676 -5442 2953 -1896 -7357 3205 1719 5793 3209 2071 4197 7572 -6080 -5467 0
5491 5189 -2890 -5209 7990 9329 -9048 -9875 6374 8878 7129 2597 -6362 -1278 -2921 0
1730 -3896 5674 -79 5818 8804 490 -8310 -7550 -2279 5014 2766 -5259 8900 910 0
-7706 5826 4532 5022 -8117 -1438 -6420 -845 -7109 -1621 449 595 -5753 -787 -4666 0
1950 4696 -9343 -6962 9030 -2503 1526 1254 -4527 265 1082 -442 8937 6020 2622 0
9566 4638 -5559 891 9666 6064 1608 8480 8492 -3680 -452 -4698 -416 -6176 -2585 0
-6549 4607 3163 8970 3085 -3959 -9846 -5238 1780 -1338 4390 5191 -2599 -1615 7711 0
889 -1640 -7492 660 -8042 -8483 187 -1471 -9820 -652 -5165 6219 -6958 9191 10 0
1334 8539 -3115 -5722 1592 7023 -1367 -2715 9883 -4509 -7667 8016 -6479 8763 -9744 0
1613 2871 -389 261 -1487 -6511 -9562 -1878 5187 2561 8433 -4359 -5375 -6713 5479 0
2087 -7068 1263 2796 6635 -9295 8819 -8208 -3163 -2096 -9062 187 -4893 -5880 -1258 0
-1830 9871 -6630 7248 4001 -2331 2275 2455 -6492 9719 -6022 -519 4123 -9898 -5451 0
5192 1820 -9234 2450 364 -6618 7964 1553 -9280 9763 1881 8984 -8801 -4435 3153 0
3373 -2673 4182 875 -7605 5815 9636 3412 -4219 3318 3623 5966 46 6219 675 0
3445 2875 -375 1223 1998 -5851 573 -5257 9542 -549 -931 -1972 -3202 5155 7712 0
564 5492 6013 -3166 -1236 -2872 -6516 -3199 -6539 -2838 -3820 -7823 1711 -7110 -1663 0
-2240 -6787 -5731 -1141 -3601 4630 9447 -2893 7924 9763 -642 -6494 9291 -4245 6735 0
-6529 8206 1124 2920 9018 -3879 142 1338 3467 -5795 4508 -6198 8368 834 -5845 0
603 788 9153 6621 -6241 9851 -4717 -290 -477 7104 -3595 -7085 9703 2182 6285 0
4869 -9981 3112 -7971 3198 -7583 -3936 6481 -8530 8645 4945 -3375 2332 -9566 3010 0
-4084 9253 2750 1073 1070 1048 8890 962 -1254 216 9758 -4702 1590 8226 -7060 0
7491 -7124 2340 -2349 -7983 -9135 -9247 4397 -3044 -9432 -9255 -7926 -767 3604 4160 0
-4440 -8865 9683 4038 4448 3001 4999 9566 8632 -10 3655 -1844 9764 -1642 -363 0
4082 228 -285 -1311 780 -5521 6137 -8150 6433 8709 5845 9782 -5212 -1791 -9028 0
9842 1577 -4987 -8128 -3346 -3027 -4027 -4776 -9102 -3857 -9032 -3225 -8560 -8193 -7717 0
3116 -5492 -8215 -3194 8957 -4357 -8136 1159 -2012 1320 5899 9961 -2464 -5521 1742 0
-6394 -7652 -2525 4597 9892 -5250 -7324 9534 8364 -5463 -3995 -1776 6367 -1942 -8111 0
2439 -5490 7104 9833 3703 9777 -9787 9705 -1394 -7497 -487 9713 -4647 -2855 4731 0
-7387 6274 -2520 -6116 2436 -2866 -8259 -7255 9990 243 -8905 -9119 3933 155 9152 0
-8175 6799 -9932 -2246 1951 -4254 4329 -4448 -5900 4991 3596 -6521 5148 -6369 7146 0
6497 -4171 -5357 5922 1908 -1100 -7081 8358 -709 7393 -6689 5773 7829 7179 4958 0
5768 -8160 3830 -4896 8315 -5465 1995 5844 -817 -927 -2740 -2644 -225 -792 9929 0
-9038 8966 -925 -8143 451 -2798 -8820 -8955 -3550 -9592 6544 -4828 -7583 -763 61 0
5700 -9201 -2717 1060 1117 -8282 -9259 900 -2774 71 7058 -2157 8692 -8669 6131 0
144 5712 -7632 -7112 1438 -9649 -3258 2688 4908 -5748 -6755 -5324 7753 -6333 -7764 0
-1972 -5786 1668 9134 -9437 -5626 3882 9286 5209 1298 -8598 4376 8038 5243 -1572 0
-1138 1330 4175 -5142 -4632 8695 -4313 685 -9569 5918 -8487 -8337 2189 7354 4569 0
8756 -9070 4414 -7641 -6320 3192 -982 -201 -8 -2757 6807 9289 2753 6821 8408 0
377 7919 5488 -4270 -2554 -8978 2783 -6717 -668 -1662 7158 -3196 116 9864 -3159 0
7538 1204 -9408 -598 4109 -7595 5746 -1779 -9063 5107 -8304 -3348 5597 4402 -9269 0
-3769 9376 9243 1085 -9301 8612 -8554 -5217 -8181 2210 -3060 4391 -4292 9625 -6417 0
252 -7488 1541 8344 1495 -7006 -9875 -3662 790 5329 3065 -1532 6085 -1167 2066 0
2474 1847 4559 4648 -5496 2796 -2847 -4534 -8941 4243 -2928 4707 -2180 2236 -5372 0
-4593 -3834 555 3747 -995 5940 1267 -8474 1766 -9605 6849 -2531 -9081 7723 9122 0
3463 938 -7823 -618 -6024 -9649 -6373 -2684 7070 1387 835 6662 1957 -1483 -9431 0
4426 9375 -855 -3519 1372 -7525 4332 5654 194 8318 -1597 1474 -7837 861 -8520 0
9151 -1082 5277 -8127 -5506 3815 -679 2470 -8042 6944 1870 6051 9135 7779 -6363 0
-736 7229 -6699 5741 -5319 -4506 -8856 -9559 -8072 8567 3593 6109 616 7308 -9805 0
-7694 -8183 -3878 3246 8251 1325 -5502 4210 -7678 1723 2274 2506 -1178 8060 5551 0
1546 8439 9656 9422 4006 7334 -5946 5103 7181 -9307 9800 7251 -5942 4978 519 0
2782 6152 -4484 6057 -5302 4544 -5788 3111 -1340 8420 8401 9921 -6759 4466 1740 0
-7082 -1173 -4869 3437 8647 5475 -9322 -2716 4927 -4499 -7957 5849 -2160 -9937 -7140 0
9986 -6047 -1208 7466 1234 4318 1548 -5001 1063 -8138 -2948 5839 -2019 6749 3198 0
-4633 -3384 -4199 4975 -691 -3856 9079 1168 -6950 -1330 -5971 -8699 -8389 -9300 -4636 0
-3023 9995 -7272 -927 -5915 8110 950 -8760 375 -8758 -7491 -9565 5278 1577 2290 0
9001 2648 5143 5018 -8914 1582 675 8714 -3690 4765 9911 6154 5032 -7868 -8426 0
-1911 -7430 -4834 8104 -2256 4421 7699 572 2917 -8382 -7503 -6809 600 2766 3155 0
279 -4191 -1513 7701 -5781 8067 6157 -3463 8132 4504 8814 -6795 7511 -2792 9843 0
8686 -9435 705 -1603 6254 5866 -4194 -9881 4033 176 -689 -7357 -1591 7730 -4099 0
-7548 -1127 973 3126 3419 8434 1767 1276 3849 8948 -4956 5381 9281 80 -1548 0
8482 1548 -6088 -7002 8193 8119 2402 -3616 3780 -2236 -7746 -1560 5156 3927 -1530 0
-2972 953 8459 -2934 -4835 8866 -5875 -9029 -9265 -2711 1337 2245 -2026 4728 -8533 0
-5922 -5558 9271 -3047 622 3298 -8681 -4600 1472 8099 -662 6325 3976 -3043 -5711 0
810 1505 929 4207 370 -3117 6965 4060 5067 5016 6102 -554 8173 -1399 2665 0
-8812 3999 1440 -9688 9084 -9212 -4062 -4008 2688 7648 7336 -9550 -2830 -6920 124 0
-7689 6586 -7031 -4797 -6509 8067 2848 4184 -6720 -3802 -1810 161 1903 8735 -2126 0
-9889 2737 1652 7872 1375 2520 -2741 9428 -1175 1806 -7256 715 -7780 -9161 -8415 0
4744 -6586 6986 72 3649 -7566 -3642 -347 2729 6907 -4920 -599 2836 -294 3232 0
1931 7467 3607 -9779 8389 4051 2540 -6118 -5056 2508 -3126 3287 530 -5765 4436 0
8636 -2067 -285 3752 2934 -4934 -8237 297 2309 -4600 -2975 -1591 -4497 -7086 7122 0
3387 9506 2518 -8688 -7561 -8844 3339 8098 3644 -2904 -8322 7501 -8168 6254 879 0
-9774 1869 -5893 126 2349 -2888 5617 -8915 3786 3024 1729 -7810 -2121 122 -7239 0
6737 -2487 -7385 -5443 -3823 -6751 -8542 -7032 -7125 7751 5245 -7992 -8426 9926 7052 0
1073 1640 -8164 -8216 4876 -4005 5271 -8149 479 2884 -8121 -6613 921 -1319 -4722 0
-7481 1723 -4052 655 9651 -762 145 -3319 -6501 -9188 9002 -3938 -7057 7310 -5597 0
-1034 -8189 -8162 4773 2065 2546 -306 3036 3171 6768 -9303 6420 -1385 -1014 -611 0
6058 -7259 -8264 -6425 -2788 1029 6051 4930 -3833 -686 7241 3791 4213 7683 -2030 0
-9129 3649 -7253 4525 744 -644 -8378 -9943 8917 2728 -9727 -5236 9229 1491 3408 0
1360 -5354 2507 -8670 -3433 2232 -2657 -9094 -7698 7517 3750 -1735 5349 7043 -4931 0
-237 -7681 266 -9426 -1190 -2732 -3768 -7523 9325 -9701 5571 1086 -9266 -1276 8554 0
3189 8007 7830 1623 -5844 3226 6207 6828 6022 -4881 4777 3799 6584 4787 300 0
6148 8539 6985 5838 -9418 -2337 -9740 -209 -5817 4583 -1678 -8123 -3798 -9903 -4097 0
2269 131 -6414 -9670 -6634 -6630 7812 9574 -5183 3397 -1242 -2256 3826 587 -6863 0
-3158 -8176 4464 2480 6515 6191 -2617 -4480 2718 4298 -4814 7391 2171 535 -6394 0
-6352 -6714 1765 -1689 2436 6802 -5476 7836 -8869 4604 -5287 1276 1448 -1547 -107 0
-3639 -7425 1192 4004 610 2060 3438 -8049 -8556 5352 -889 7736 7839 7081 36 0
9750 -8419 6016 8399 1552 -1412 5968 -1481 -6072 9898 2077 -1831 -4385 -3968 -1762 0
6413 -6296 9537 -8565 -4702 3374 890 -2087 -1272 -7672 7957 2537 -4177 55 -7854 0
7686 2388 4912 -1709 -6701 248 -6002 6086 1129 5589 -1936 -4217 -2010 1570 2641 0
-7454 -462 -8130 7786 -530 -7974 7618 -6362 -5602 3529 2856 -1293 2053 6076 1879 0
-8107 5826 -9560 -6481 3482 -2425 8159 8197 -1 2818 8539 8746 -5583 7073 -8110 0
-6281 5447 4042 6486 -517 -2405 -4098 -3215 -4238 -4722 -9644 -2151 2157 8019 1152 0
-1063 -812 3251 9000 4199 -4799 141 -7339 5182 -4771 -8217 -8883 9394 6823 -6805 0
-565 6586 7233 7965 9043 5461 7182 -2650 396 7528 8790 8724 -5631 -4635 -1609 0
-4592 -7370 865 6205 -1282 -4088 -5725 2705 4996 -7189 9485 -4058 -98 5693 -4414 0
1900 4142 -2791 -2848 1775 5865 5942 -7642 7176 -2899 -5210 2225 -3162 -9052 -5479 0
3656 9701 6952 -4715 1534 5649 -2937 7024 -1655 4370 -3503 -3628 1232 -8059 -8033 0
-2385 -3972 1682 3936 -5951 -5479 2365 -8320 8400 9780 -1035 7365 3707 -575 9301 0
3374 -2465 -3395 2114 9935 3725 -2010 -8033 -941 -6813 9458 -290 177 304 -4228 0
-8177 -8190 125 -3657 -5267 -1853 6120 3173 -6373 -4543 4872 113 -4428 -8876 -6312 0
-6736 -6086 7511 3249 -4290 7842 -1388 -1530 9272 -9339 6178 -7737 -7892 -984 7002 0
-3647 -2542 -2696 3348 6237 7379 -734 5270 -795 4208 -7331 8671 -546 4768 -3224 0
-4916 3916 5886 9223 7910 9538 9677 -9905 8931 618 -5308 -7417 5061 1148 -1554 0
-5716 -2451 -2287 1711 -1046 -1859 -8324 5220 -3388 2341 3597 6835 4777 -3769 -4063 0
9426 -2032 3314 5899 2901 2097 3204 6705 -4693 3480 2300 3096 -4336 -8012 -6131 0
5768 -5982 -5326 2899 9461 -3202 5344 -278 2349 -5521 8077 -8507 6922 9984 -3461 0
-6377 -8887 -424 4530 3039 -7069 -2532 -5589 3835 4402 -299 9592 1978 1877 -8579 0
2348 7591 7146 -8588 -829 8178 -1972 -2668 -186 -8046 -8448 -4456 -3823 610 -4664 0
-4214 3883 2149 -2625 -5258 7233 -1049 7201 5043 -1896 6426 -6884 -3873 8815 7451 0
-127 3364 -3619 2170 9040 898 -2387 3647 2962 -2442 -6505 -3165 -47 -699 -6360 0
4427 50 -5024 6092 3734 8620 -6697 -8304 -6352 -6044 -5312 -1572 4100 1681 6952 0
-5366 1376 -3409 4215 -1007 -6205 5504 3684 -3749 238 7423 -2132 6363 -8509 -4431 0
8044 -9534 -4465 -5028 5418 4980 -3271 -1600 -9335 9673 3668 -4104 -2140 8159 -9059 0
-8891 2435 -4459 -228 972 4916 4443 -6992 -959 -1062 403 9088 946 9031 6270 0
-5447 1292 1572 -9243 7263 -9504 -4238 -2123 -2397 -5720 4979 -9350 3401 -3601 -4292 0
6072 3349 -6002 9550 -7752 -4044 3129 866 -4243 -7915 -4006 5937 6905 -7017 3914 0
4318 7030 5938 8381 6978 -5658 -8868 -5397 -1255 -1001 4250 -9786 -2896 4573 -6828 0
-5274 -341 -6638 -9384 -3362 259 -6734 278 -1812 7117 5028 4945 5786 -4647 -1623 0
-7643 6125 -9484 -1715 -8145 -8788 5163 -9406 -7394 -827 1895 -8176 -5337 -9413 -3821 0
-8092 1868 -545 -4754 1162 -1048 -8688 9798 -9634 -802 4812 -9945 6525 9153 684 0
4564 -4837 -7072 -916 5299 4213 -3377 -5696 4421 7226 7701 -3801 -5708 7821 -8549 0
7549 2105 5763 -9008 1199 -2321 6513 264 882 7022 3412 -973 -4534 -4252 -2424 0
-7127 -3878 -3528 9137 8631 -1274 6548 5678 -6157 5155 2513 -1451 -878 4971 -4727 0
-9678 1775 -6628 3421 3113 -5654 -7419 -1679 -7248 9874 5261 2826 4584 3632 9248 0
-366 6647 4773 -7849 2952 4787 -6040 9595 5450 1636 -9191 9153 -1276 -8190 3452 0
2688 -4419 -4459 4354 -6401 578 9894 6147 9871 4740 2656 -5495 -4568 -1879 6011 0
6947 8780 -5986 8699 -8622 -9689 -6194 -8352 7652 4316 -3787 -6666 7983 -519 -6626 0
1890 -4071 -4668 -6579 8877 -7177 -2699 7983 6505 3392 3153 3288 9027 -6223 7624 0
2359 -3155 -7576 7483 5004 -8457 4407 6326 1809 377 3196 6527 -2685 6550 8727 0
-9436 -8951 9240 8408 -1113 -4077 -2065 7503 -7328 5835 2546 -3038 -8505 5610 -7015 0
6085 2317 -9124 3346 1230 -9882 -2393 6527 -701 -742 -7233 2396 1001 -2038 1859 0
5831 7427 -8757 3719 795 3228 -7102 -3454 7670 -5924 7834 -363 -733 -4238 5986 0
-5455 -3631 -6746 -1038 -4397 177 596 -7431 6781 -512 8115 7091 -3528 6537 9393 0
-7519 3680 2068 -7367 6264 274 5708 6389 -5383 -7792 3804 -9038 -3470 -7044 309 0
-8463 1266 8257 3336 -6385 5394 -6202 -371 -5055 8077 6304 3027 -3215 -1912 -5358 0
-136 -5752 -4646 -6700 -4544 2348 5558 -6879 -1621 -6053 -2712 -5121 -6739 8768 9191 0
-5997 -4594 9772 8393 6057 -7670 -9999 -2704 -439 9452 4912 -382 4177 -9350 3369 0
7837 6233 1242 6957 -7866 -8338 -5316 -7401 -4787 -5847 1815 3069 -2457 -1151 -9505 0
-3741 -1542 -1650 8575 -1982 -5414 3644 -2221 -2059 -3181 -216 -4748 -5061 7962 -1449 0
107 -8414 1616 -364 8372 -8527 9284 7816 3675 490 937 8844 -9607 1456 1662 0
3129 833 4387 -2571 -1692 -6828 1585 7134 -7976 8374 8305 -6839 4002 6996 6493 0
5942 7733 5915 -8978 -989 -9997 3589 -2875 4193 -8334 -882 8968 -2775 4379 1425 0
3321 6794 1036 -7453 3953 -3858 -7559 2495 165 5482 -6882 3393 1579 9575 5204 0
-6412 436 -8593 -922 -5070 -4643 -8534 -7344 2744 2220 -4869 -5773 -9983 -5875 5130 0
-2406 677 -5203 -6546 -5626 -6471 -7945 -1983 2675 5954 -1805 6662 1004 -8689 -3440 0
1930 9226 -1445 7432 -8624 -1229 4314 -4013 -3423 7277 4594 9736 -1059 4367 -7379 0
5370 -5600 6811 2043 893 9850 -5753 161 8667 -295 5656 9265 6177 2839 7826 0
-6628 -1256 9833 -7080 -9344 8197 -4855 9019 -6419 -4936 -7169 -6686 8885 -5884 -7724 0
-9908 -2794 -3599 1963 6829 -2038 9218 -6508 -2938 1832 -5579 -2584 -3880 -7087 -7060 0
6157 5043 3814 -2919 8140 -3380 2145 1437 -6212 9780 1843 -1169 8041 2889 1087 0
5541 -4175 7838 5882 5929 295 -8347 6056 -3818 -1492 5320 5525 3447 8192 -7918 0
-6734 -2665 2900 1565 -1437 -1220 -4809 -7357 2028 4339 1222 8868 5477 -6259 -3060 0
9901 -9714 -9128 7893 -4297 4997 -2590 -8231 -451 2995 5787 -9155 630 5041 -3705 0
7106 5019 -2330 4590 -2800 1056 -9542 3626 -4058 -5978 84 297 -1082 6078 4469 0
-9483 -9893 -7747 2032 -9577 -8158 7217 -614 104 3401 3825 8372 -1445 -991 -6280 0
2837 8704 3063 5796 5375 868 -6976 -5721 -8416 -4261 -2625 5934 -1953 3844 -5982 0
-8448 4291 -1219 8414 -1353 -2842 -9915 -5718 7267 -6415 1402 685 -655 -3798 -2725 0
-5186 -1695 -1808 -2744 7267 -3585 2507 1514 8670 -3991 -3809 -8923 6984 -7366 -6709 0
-5148 -8788 9521 -2906 1527 -2670 4857 7300 9327 5765 -2023 8335 -8984 650 -5585 0
-1975 6529 4313 1393 -582 8331 -9171 6786 8346 4303 -3353 4132 -6081 -9058 2620 0
-4896 7341 -8245 -924 7050 612 1579 -1520 -1091 9287 -5619 -718 -7119 -3135 5452 0
-3933 54 -6356 9759 -1872 395 2051 -7631 3685 -4722 3404 6959 -9751 5684 6353 0
2761 -4737 2063 3251 463 2277 1464 3000 -5170 9759 -1467 8437 1698 6694 -4919 0
-2768 7898 9233 -8485 -9475 -422 -2944 -1096 2349 -5089 1715 8358 3659 9736 3863 0
-2991 9153 -1650 -454 1876 -4050 -8530 8105 3149 -206 -1278 -4647 -8809 -1408 -3494 0
3081 -6241 8981 915 6672 9378 1110 2720 -5590 712 -3325 -9737 -7938 -6418 -793 0
-9874 3671 -3395 -9315 -1439 -4135 1062 -3510 7957 1257 6626 5146 5562 4747 -3001 0
8963 1120 4385 7044 6044 1559 -7374 -6430 149 -4645 -2353 -7288 -629 -7152 3442 0
762 -3612 6303 9785 7021 5905 -7096 1904 4871 -6524 -8645 4453 8525 9288 3656 0
-6295 -8892 7448 -3500 -5454 5669 -8947 203 -3438 413 -1224 8396 6377 -5164 863 0
4672 -715 8782 -5169 5433 5352 1574 -8092 1009 5220 9204 -582 7326 5167 7570 0
-2323 4614 3006 -539 4175 -7813 -6123 6704 1910 -2287 -2012 -2710 -9487 -7108 -2861 0
7925 7961 2938 7647 -5294 -4429 -4869 8896 5463 -4267 -8510 1811 -5094 70 7010 0
5637 -9147 -9555 -8275 -7343 7914 4567 326 4960 2108 6978 -2278 -1220 6032 6087 0
5118 -28 5048 -5500 1752 -2806 -5858 -5940 6360 7906 -6383 2024 6731 -7758 -6970 0
7393 2623 9262 -3302 -3981 7743 5345 1471 191 1352 3985 -4593 1024 -1487 -1548 0
-221 4121 -1603 -9007 -5935 -3742 9682 -6409 -3475 -9019 -5221 9194 -8525 -3459 -9828 0
-2800 1905 7327 9116 4430 -6701 2240 5782 -9542 3491 -2655 -9747 -9093 -9114 -8873 0
-3607 -4129 -12 -35 5301 -4485 -3978 -8502 7416 -7131 -6837 -2351 202 -337 -423 0
534 -5531 -4261 -2514 7401 5426 2458 -5665 6338 8330 7159 -1168 -6103 -7358 7042 0
-7640 3555 -687 4074 1353 9621 -5637 2786 -6060 -7167 1596 5314 -9348 -2098 8682 0
6865 -74 3356 -2924 3172 -1264 512 7241 5387 4502 -8960 -634 -2553 -778 3423 0
-6581 -2051 -5476 725 -6079 8398 3373 7323 -3017 -1849 3064 4100 -9952 -969 -2456 0
1548 2728 -7460 -6796 9208 -1290 -7568 -4084 2567 5598 -3015 5035 -2747 -6103 4622 0
-9893 -6529 -7061 375 4101 -7146 5322 3876 7922 5038 -2553 3928 6582 -1968 -7599 0
-7059 -8067 -8460 3339 -3556 -5102 -3017 1439 -8347 3198 4188 -7143 7053 -2609 -8133 0
4703 4312 3020 5667 764 -4700 -5893 91 -4969 -1936 7526 -6539 1739 -4645 -5327 0
4321 -2720 6503 -8238 5204 -9567 -7309 -2778 -2011 6726 -256 -3870 9373 814 -2156 0
-6508 -2292 5619 -5422 3163 2444 9640 -7150 1319 -7224 -8727 -3254 2006 -1063 8590 0
-9694 7587 85 2479 -5787 -5863 -9435 852 2471 -1453 6708 2259 -5020 -5125 -2822 0
-8346 283 -6650 4039 -5856 -7346 2572 2481 1736 -1667 -7801 2421 -2073 -6619 854 0
-7236 2721 -4196 -7715 -8071 657 8283 5358 -1179 -8145 9798 5349 650 7024 -6208 0
7542 9828 8383 337 -7008 -1266 5741 7570 9716 -7131 9516 -2404 7031 -1111 7700 0
359 3812 -1379 -1213 -651 -7720 -5484 4028 -3622 3600 6387 -550 -6623 -2195 1438 0
5721 -7039 -301 8841 8248 -1945 5929 1705 -6087 6013 -1891 -4723 -4706 2855 -6898 0
-4734 -5334 4678 -5101 -8129 1084 -8445 5549 -2307 9411 8 -1783 9878 1332 -7180 0
7673 1209 4209 -1754 -4349 6559 933 6192 -327 9929 6971 8960 9069 8400 -8872 0
-2135 -4434 -4130 -3969 -2980 1956 -5356 4831 -2647 -7099 3456 -7524 1149 -7540 3249 0
-2387 -1877 -8934 2425 7304 24 4320 -9829 5388 4258 702 -9920 7768 -1081 -9941 0
3605 -1176 2161 -3251 9362 7748 -4128 7171 8532 -9997 5095 9738 3426 8903 2735 0
7262 8449 4608 -4393 1299 -9613 6659 6762 236 -4273 -4251 -1669 9822 4832 -2301 0
3850 6112 8675 -1890 -9764 -448 8671 5061 -3993 9599 4564 5346 4413 7346 -9968 0
-1087 7871 8771 7398 -5075 -8282 -8251 -5708 713 219 1124 6234 9716 -6074 -4422 0
2618 -3808 2169 1827 -2733 8467 -8918 -8680 7219 -8266 -9480 28 1200 2652 5307 0
-3568 -1798 -1926 -750 7283 3350 -9283 6002 -223 711 -802 -2765 1173 -1012 5196 0
-9589 -9860 7791 3568 8873 1633 3321 3465 -7377 -6806 5939 4907 -3580 423 -8904 0
1987 -7598 -5125 9999 -1462 308 -318 8823 -3749 9583 1786 2975 -7792 -3028 8038 0
-3434 2241 -253 -2024 -5875 -6442 8549 813 7610 -1520 6038 -4194 -7105 6928 7877 0
6791 6195 -2377 1683 1203 -27 -8752 -906 -599 4687 5720 -7975 6953 5279 -3610 0
7553 -7583 53 8678 -6111 -3114 -820 7295 4893 -2782 6857 9093 -8190 720 -7754 0
4887 8642 -8748 8898 801 -2779 -6843 -7854 -4183 306 -3716 9120 -7695 2831 2840 0
-6533 991 -5575 6645 6144 9759 -5696 58 -8244 1195 -2192 1045 9219 5824 -7243 0
9313 1294 3225 1121 -7614 9442 2601 -4475 2014 -1661 2197 780 -6168 4618 -5685 0
3461 -7842 -9813 2738 -4798 -4644 6750 1248 -8566 6106 9877 4018 -1343 6976 -5468 0
8193 -2809 9396 -3186 4146 -1348 -994 -2404 4137 -231 531 -2961 6045 -461 -1396 0
-4285 -4685 -9874 5594 -8355 2561 -5064 -8875 1831 312 9182 -9556 -4443 8559 1110 0
-4281 5757 -2976 -2360 9116 2694 8990 127 4882 -3684 7436 3714 4191 7690 -1771 0
-2281 248 -5494 5272 4511 1631 -5364 -1735 2688 2509 8520 -4839 1513 -3361 2718 0
6530 5948 -9850 7709 -5711 3605 354 2280 9723 5445 6327 5663 98 3380 -2283 0
-9433 6483 7611 -5854 -2695 4870 8464 9992 732 128 5546 8374 6923 -2938 6669 0
-7721 -4162 1507 3258 -8149 8751 1211 9160 -4698 -7753 4942 -406 3418 -631 6322 0
824 6002 5172 -5973 2951 894 -164 -932 5009 -8389 6174 7561 6133 647 5620 0
-1298 -4592 -9049 -9572 9024 -2640 6080 -7516 2537 -2825 -8955 5661 730 -6308 2157 0
6424 1312 -830 4376 -8195 4685 -1469 2652 7900 -1729 1702 3751 488 -9623 9373 0
6668 7975 -6982 4463 -8630 -9958 -9578 -8439 7323 -4483 -5108 -7407 -5068 -8435 -5527 0
-1473 7403 9933 -5627 570 -4428 3891 -2778 -4138 7301 365 -1222 7903 -8931 2012 0
-9248 7201 1893 -7059 -5799 6548 -1515 -4597 -3307 568 -4835 -6552 915 -226 -6303 0
8535 6256 -6740 1505 -2875 5823 8418 3010 -3301 -1671 823 4575 5045 -1988 -1221 0
2257 6934 9921 2667 4618 -8470 9954 -7450 2888 -2114 2741 7446 -8960 -7725 -6180 0
-9155 -2979 3061 -4565 742 -1661 -5075 -6658 -3635 -903 -489 4976 -8471 -2312 -3979 0
-9466 3283 -8009 -9518 -81 2947 -6957 -612 -9287 2845 8494 2176 -129 5512 -5120 0
7243 9708 -391 -7866 -3201 8461 -2772 -1587 -9766 5234 7905 -9337 -893 8780 8971 0
226 -9687 -5502 6436 8377 -3155 1687 1976 -2566 -4560 -5192 -4777 -5783 3501 -2671 0
6530 -456 5029 -7588 5993 7298 -117 -3955 -7435 -2715 -5842 -8980 -9970 1098 -6689 0
5691 -9717 4957 3499 9397 8468 -3374 -7214 30 3440 -7400 -8293 -3678 -165 -8515 0
-6817 1788 3864 9438 -6754 -1371 -5606 -5412 9608 5464 1773 2504 9570 6136 8330 0
5437 8203 3348 5262 -2791 -7617 -2010 -3018 4695 -6777 -5620 6556 564 3881 -9014 0
9830 6706 1473 7723 1477 6576 7994 -6929 5241 5142 -4414 3062 8761 -2687 8881 0
-1410 -6258 -3927 4455 368 -3508 -5190 -7566 -389 5304 8154 -7664 -4725 5169 -1640 0
2091 7851 5506 9523 9582 2402 -8980 -3489 9536 -5105 9861 5747 -6237 -6362 4103 0
9585 -6740 7493 7312 3756 912 -3263 -418 -3045 -2947 -1538 1320 -1298 -2012 3255 0
5876 -4031 -266 -6915 7106 3318 530 3346 5991 -5791 -4449 2680 -3924 7963 -1756 0
6522 2631 -3686 -2358 -3377 5655 -1172 -4650 -4383 4587 7919 -3428 8088 -7460 -2167 0
-3701 -2660 7427 9065 -7047 9414 5487 -7797 -7815 5455 1629 7192 816 276 -994 0
-1946 -8886 -7343 -4131 8448 3879 -4189 -4903 9658 8049 -8958 9152 -1381 -4575 4387 0
-7919 3884 -1014 867 -5429 6492 -6753 1563 -7603 7583 8663 -5447 3961 5848 6699 0
-2530 -4673 1270 -511 5622 -5818 2672 7015 3167 7737 319 3052 8247 -3659 1290 0
3608 4964 9272 -3867 -2614 -3613 -2251 -8500 -8861 690 9234 4763 8122 4058 -3706 0
1711 8681 9088 191 -1592 6630 2581 -6884 -1771 3726 -5718 4426 2609 3615 4266 0
-1189 -9814 -8377 -3696 -4727 -2620 -9716 3580 9129 2607 -8082 9552 -8315 3273 6442 0
-2631 -5083 -1238 -5974 -3788 563 -2442 8173 6622 6800 7075 -2890 -6312 -4009 -3413 0
-1587 6314 9247 8201 1337 -2528 322 -2535 -9108 -1722 -5909 8812 2527 -4213 -9279 0
6299 -4815 -9838 -6375 -3920 126 3969 -884 -942 -4074 9009 -7534 -5727 7172 -1223 0
-6595 3498 3357 -3474 7043 -9991 9916 -9407 2841 -5954 87 -8530 -9770 5036 -2967 0
-6311 7300 7436 -9111 -1471 3447 6261 -9922 -6927 -6874 4173 -7209 -7672 8134 -9188 0
8001 9543 9528 7081 -6682 -5098 7070 -2358 -5193 7066 -8384 -906 -3115 9128 9264 0
4075 4445 -2016 8295 691 -1656 -9293 9823 188 9745 -1150 -5248 -711 -8031 2163 0
9304 -2278 -861 -1026 -9116 3730 -3996 4378 3247 4476 -3102 5672 -1860 632 -2983 0
-3413 -8275 7015 9293 -5480 -936 -5687 -2570 4197 -5129 -5585 -2763 -4676 2937 6155 0
7014 -6797 5589 -101 4818 -7304 -7550 -2596 -1862 -6135 1167 1247 -5561 -1814 -5029 0
-8482 6352 -6141 3139 -2279 -2922 -3949 -5516 -8299 -169 -1620 -8047 2269 1951 8067 0
-4562 3608 2208 7045 5642 3199 -8147 -3868 -741 -8949 -9575 -1186 5800 -4257 -5618 0
4622 -5674 4295 7823 -646 7729 1071 -6989 1233 -7885 3014 -2370 -7935 -4652 -8892 0
5131 3770 4080 -1909 -1555 1643 1823 -7163 8557 -4410 3287 5230 -4145 -5887 2105 0
-1428 6542 4369 1151 -4226 8792 2081 -4932 -5074 358 -7921 -8782 3874 -2180 -924 0
-7330 -5086 -6511 4445 2926 8873 3318 6290 -8968 8687 6907 336 -2466 -2451 771 0
-7463 2261 4759 6138 -9722 8823 -5339 -6392 -8814 4486 -3202 54 -3681 -308 8736 0
-7195 8232 8867 941 -9097 -6858 5959 -103 284 -1258 1134 -7732 957 -3508 -6312 0
-8658 -5428 6477 -8769 9289 407 -7979 -7028 7482 41 6292 -616 -4706 -4133 3323 0
884 -5344 8469 -4894 3952 -7238 8995 -2109 2629 5228 5242 -2305 -3397 -5259 -9085 0
-7897 1410 -6228 -8740 1303 -5448 5461 1304 280 -1553 2620 -2481 4367 -7788 -7339 0
7729 -3437 3190 6004 -6928 3225 8829 592 4238 -4591 -7734 597 -1501 3945 1325 0
9839 8046 4628 6519 -7599 98 3426 -1887 -2190 -8264 -18 -5604 -3895 -7954 8485 0
-2613 8688 8197 81 3856 -2992 -7020 -5204 5579 -1773 2551 9748 2256 -8536 5531 0
-6915 -1698 -3266 1719 7708 3839 9847 4724 2989 -9219 -3026 -4458 -9643 7376 6709 0
6824 -642 9723 -4000 -4436 92 -8398 -4363 -9589 9892 -476 6527 277 -1269 9949 0
-6142 -6332 -7136 6793 -3942 -8392 -3603 8264 588 -379 173 -4371 4669 4752 7239 0
-5458 -5921 8140 -3513 412 -1003 2067 8986 -3208 7813 6331 -2554 -8319 -1885 9414 0
2894 5709 -8235 -7329 -8251 -1616 2843 -6553 902 -2757 -8895 950 5731 3124 -2769 0
-9360 -982 8185 -1704 4723 -8000 -1290 -6560 -3445 -9529 -4513 3415 8406 9853 4544 0
-6112 -3045 352 -4729 -8809 4949 -4013 277 -100 -558 2339 -8867 -8521 4020 9978 0
-6979 5309 2474 -4036 -8321 2612 7762 -7219 4806 -2605 3418 9924 1591 989 -1949 0
5983 1070 -9174 -1691 6331 2367 6281 1399 -3410 -9352 -1760 -9469 4759 4156 -8124 0
-8714 -1206 1312 690 9178 -9127 3032 4440 7313 5588 -8783 -9862 8074 3366 844 0
190 -3392 6336 3008 -4359 807 6118 8277 -3725 -8852 7616 869 -6089 6993 -2893 0
8580 -2905 8243 -5581 8462 -8100 6053 -5406 5780 -4118 -8140 -5970 -4829 8090 9928 0
2994 -3547 -9822 1652 -1114 -7447 854 -2931 -4723 6564 -2440 5225 6285 -6100 -8615 0
4492 6672 -848 -1894 4950 -716 -5003 2500 7824 6145 7191 6131 2873 3270 6519 0
3506 643 1889 4400 6998 6663 -3045 -3577 -1052 -290 -4865 5750 6837 5012 7234 0
-7948 9540 7761 2119 8248 -6557 4396 9486 -8570 3233 -7775 4687 -9250 8401 6743 0
-2137 3788 -3200 6331 -3672 -1592 3071 -54 8906 6951 -866 -7135 -7889 9923 -1316 0
-5311 9381 -6646 2632 3757 -2861 784 -1069 5478 9588 -2101 976 1881 -2616 3986 0
1204 6817 -7371 1157 -7187 -9319 -5452 -7588 -2271 8375 9568 -5550 -7298 -799 7478 0
9774 2282 1557 3434 -2718 -4920 -5796 9044 -1941 -2877 7856 -6161 -9084 7694 8772 0
-6095 7231 9565 -9304 8163 6375 -3519 -6506 -7515 8401 -3992 -4812 -4315 -639 7006 0
9895 1083 7460 -1148 -8799 6399 2574 -1692 8110 2382 -1195 4600 5979 6356 -2610 0
-4173 -5717 -6257 -7979 -2242 4645 518 7036 -4261 -1431 -56 -9286 -6933 -5060 17 0
8543 2585 9790 8394 -2005 5340 -3684 -9645 -1916 -7125 2303 1864 -1589 2229 9502 0
1498 1183 -6204 5712 -8370 -9435 4574 -5165 8234 1153 -2933 581 7201 8159 1758 0
-9980 5934 -377 1357 793 9854 -9793 -2712 -6010 -5688 -6025 -405 5939 -1961 -9265 0
-8218 7977 -8267 -2188 -3869 -2798 1696 -7226 1500 -3715 9012 8392 4693 -3440 5134 0
6921 -9383 -2098 7393 9245 599 -1890 -1755 -8886 -6257 -7916 4858 3489 5452 -6467 0
4015 8243 -7705 196 139 1836 -6640 6932 7071 9189 -72 -9525 -7224 -1545 3199 0
-8390 3903 7884 2730 -2462 997 7411 8613 3339 -4096 5565 -2718 4717 -1157 4405 0
7156 -4155 6891 7146 -3865 -6548 9185 -2685 -7400 6251 -4067 -2910 122 6107 -2589 0
-9687 -1075 -8417 -2384 -8830 -3034 1164 1768 6988 7195 -3944 -8937 -6736 -9834 7729 0
4856 -3910 -7752 -2912 -2516 -2830 9600 5356 9557 -206 5140 7897 9849 1641 9779 0
-8170 -4436 -5559 3404 -4864 8906 1410 -6137 -197 5871 2191 -2243 8219 988 5407 0
-7718 3107 6094 -5898 679 9696 -9118 2271 -522 -7743 -5164 -3476 9092 8193 -45 0
-102 -6487 2755 9547 -3346 -983 -8320 -5876 -1955 283 8631 -4615 -537 -2068 -2627 0
314 -2918 5199 5150 4892 1486 2058 206 2754 9799 6944 -8675 -8475 9277 -724 0
1970 123 -3775 -502 1088 3118 5637 8492 7287 -7527 -7495 -9834 9 1110 -7767 0
-6205 -2405 -5634 -3903 6780 6657 7077 194 -7283 -1499 2190 9960 1871 2583 374 0
-132 -889 -3090 -823 6417 4469 3343 -6355 2392 673 6942 2223 -8964 6338 4037 0
19 5898 -7704 3946 -2003 5161 4296 1481 7204 -4370 -6651 1535 -8473 -955 -426 0
-8718 2901 -1951 -9503 8958 5898 -7764 -2769 -4075 -2781 -7174 -10000 -5334 -5571 374 0
-1986 -3197 -6319 8592 -9462 -489 -256 1602 3094 585 5306 3332 148 8998 3772 0
-435 -8800 1835 -7246 -1018 -1749 -9388 1057 -6840 -6331 4362 1369 -9622 4106 9165 0
-6136 -2739 96 4108 5215 -4260 9402 4827 4758 9376 3881 70 5769 1176 -3375 0
-5086 1647 9696 -1440 3203 8300 8154 8873 5936 -1031 5832 -1103 -4445 8021 617 0
-6957 2682 -8396 -6428 1869 3557 8742 7746 -2507 -9423 936 -4249 -7146 -7212 8881 0
9204 -3963 8067 4290 641 -7329 -4387 8474 -6451 -7789 -2850 7884 9207 239 -2187 0
-5313 6607 -5697 -6899 -8243 -6129 1469 3466 -3537 8664 8571 2973 6450 -6888 8546 0
-9669 984 6140 1679 347 590 -4936 -5385 5345 -7154 3016 -9378 -2835 -5311 2993 0
1540 -8152 8904 7307 -4375 -2758 -1823 -5992 -1295 7146 9808 -2004 2969 -8807 -5803 0
-6633 8112 -2489 -128 6606 -9879 5555 5945 -3729 -7545 -6941 -9979 -4720 9174 -4653 0
9082 -768 1547 9424 6684 -5586 -6641 -1176 9378 -9879 8826 -37 2310 -7006 -1638 0
4044 -2384 5182 2746 -4105 5951 -6572 -551 -5338 5471 -9836 -5552 -2477 862 6887 0
9482 5319 6689 -729 7647 5068 -128 -7154 6930 6728 1716 -9163 -2980 -5418 3271 0
-9745 2076 7600 7624 -733 8025 1284 7397 6396 -8608 -2259 7396 4130 -8211 -701 0
-869 8916 4886 -1234 -5254 -2219 3173 188 9037 -4847 4529 -7972 -2623 -2778 -2000 0
-536 -2020 -9479 -6519 7665 296 6168 -137 -7 -7616 -6024 -4559 3725 8412 -2065 0
-1436 7497 -9691 -7983 -1640 7668 -182 7635 -3152 -1522 -4051 -1860 7297 -6648 3330 0
-4486 660 2056 -3500 -8419 -5539 -7280 8334 -8336 3684 -6031 -6662 -5631 -1836 -5789 0
-7159 5372 4713 -5315 5309 9636 2538 -7827 -5227 4878 2663 -5054 5669 -2348 4122 0
1254 766 5617 7446 6310 -3806 2921 -3335 -6681 -3741 9842 2045 -6837 3629 -9037 0
6748 -2959 -5877 -8724 1518 8162 7897 -4140 -3307 -8331 3241 4325 -6921 -8491 1316 0
9909 8637 -9912 -5515 -7575 4505 -7260 5745 -6350 -3206 857 8110 -7704 4310 7067 0
8635 1191 826 4946 6104 5807 -2847 -1716 -3096 6518 -2121 -3583 -2264 2362 7479 0
5708 -6744 -2456 5484 -6834 2377 -8086 -9006 2564 1485 4378 3449 -9823 9255 -2027 0
-4914 8306 -9613 -4851 -4421 -3128 4861 8633 -8314 -9148 -6902 -3346 5694 1366 5093 0
2638 5879 -5034 -8094 8544 1404 1713 -4136 -3605 9385 3327 -5834 -696 -1621 152 0
-5088 -623 9020 2311 9021 834 -9876 -3641 -6751 9873 -9514 -3082 1267 -6217 2182 0
-6728 7210 8737 306 6841 2011 5532 3048 -8318 7910 -3500 -4851 6325 7419 6803 0
4541 3056 3944 9125 -6345 -1653 5590 5796 4770 8765 2160 8401 8528 -6834 6943 0
-4874 2851 -9420 -4068 5201 1953 1418 1692 -7038 9427 -1900 1832 7810 -1044 3024 0
-6768 1748 9635 8520 -734 857 2712 5732 6139 -7545 -8191 -4021 -6491 -2789 8364 0
-3538 178 4525 -4340 7786 925 -8673 8863 7474 1869 -462 5525 -1378 8300 -2386 0
-1306 -8881 -8539 -917 -7250 -8253 3822 -9863 7036 6218 -6406 1958 -3157 3610 -5899 0
-2623 -441 -7133 -9828 7921 5486 7039 8353 3027 2355 351 -6469 -1254 8635 5261 0
-1883 2203 -783 7733 -2158 -3214 -5626 -5236 -214 9375 2976 -2281 -7243 -4072 7326 0
1304 -1737 7784 5654 -6543 7591 2600 8321 -4528 -8768 -1051 -4617 5486 -4933 6231 0
6508 5276 -416 6342 -4796 1590 1784 -6604 1101 -3990 -6558 1639 -1748 627 -6541 0
8008 3437 2609 5876 -9247 -7787 8915 7626 7774 1097 -1221 -3433 -8862 -9028 -8833 0
-2002 -2766 8087 6015 618 4900 3667 9179 3121 -390 5139 819 -4057 1263 9579 0
-5 -8500 5502 -8212 7888 -7756 -4605 5751 3812 630 -5655 4159 -1372 2430 9818 0
-2244 9474 -1803 6645 -2045 1817 8089 -2042 -1260 -4514 8841 5754 -9296 6948 -5595 0
8307 -8299 -4920 8552 -4682 9045 5770 4390 -5456 -9468 -4189 -4698 2458 -5767 -3417 0
9170 -9732 -6085 -3627 672 -3171 -1915 -363 -6862 -5700 -6195 -2338 -9558 6758 8106 0
-8873 -8354 -4303 -7218 9967 3196 4171 -5169 9634 -7268 -4366 -176 -1154 4763 -2998 0
-3528 -7754 454 -6955 3179 -7941 9920 -9173 2387 -4023 8701 -5480 -9317 -8544 -9436 0
8836 320 -5470 -2767 -5190 1438 -4377 -7004 -4609 -1724 -8379 -7154 -4407 8470 -7741 0
2737 -8225 7620 2234 321 5918 -920 2183 1488 -78 -235 -8689 -1663 -2060 6016 0
-5351 390 4949 -3295 2779 3030 6022 6055 1519 -4938 9275 8632 4035 -7934 -6639 0
-4824 -542 3654 9456 4169 5748 -5145 -3514 6591 3770 -4809 -9749 -9504 4388 9317 0
9550 7046 -300 -7958 9499 1456 -212 -9798 759 7405 4340 -1862 -4621 1895 -7670 0
-6965 4647 -8014 6966 -5655 -5964 3304 3014 -4808 3697 -9824 -8 -5421 4298 1143 0
-392 8747 -4322 -5589 -4790 6367 -2435 -41 -820 3341 -3396 6813 4591 -6754 -7345 0
7257 1324 1033 3023 6695 9995 3441 -4439 2030 2598 -7640 7075 -244 1865 -6696 0
-8996 -1967 -3865 6610 -2936 8592 9431 -7281 4101 -4514 -9504 -2097 2700 -6180 7088 0
-6630 5243 -5594 -8243 1580 -7352 -922 -1380 7064 5819 111 -6471 3546 -2625 9564 0
8355 8951 5171 2996 5414 -8367 3534 1627 -2774 7741 -1297 -8452 218 8304 9009 0
4245 -8033 9447 -4565 -7753 -9450 3095 1526 3592 7314 -9665 7126 -6382 -351 80 0
1708 7128 -3538 -7889 -3787 168 -1360 3452 9228 -4889 6244 -4268 2206 8499 5476 0
3422 1500 -3466 229 6010 1436 3869 -4166 -318 3828 -7879 -1260 4913 -600 2292 0
3901 -287 -2310 23 3186 9436 3357 -2245 -89 -8028 229 9358 -1846 9340 -6043 0
-8949 8099 -3829 928 -6210 -5457 2849 3194 -3945 3359 -8907 2343 1126 -8654 -4455 0
-1764 -4896 -1972 6442 1221 1340 -2469 -7564 -7779 -5878 -6344 -2363 -4802 9776 -3114 0
4838 -9898 -5943 -1160 -1127 -4079 -128 -895 -7627 6643 -5109 -8977 -3896 9028 -9509 0
-620 -4998 -8363 -3465 4078 -3279 -3030 -7969 7521 7309 555 5036 5375 1973 -4031 0
-7232 210 -1687 -754 741 -7086 5324 -5280 -2439 1562 3306 8544 -8878 1441 -7439 0
7180 6880 3774 -5879 -9358 9426 9269 4655 -9500 -1623 3449 6542 3314 9439 -6573 0
9256 4900 2904 2142 -432 7919 4556 -8693 695 -2557 9789 -6071 3628 -1631 -5047 0
3199 -2953 -267 8965 -9789 -1110 5665 2143 -6993 5970 -5091 7391 8073 -9405 -9629 0
-5514 -3108 1270 -1597 1109 9230 -3894 1498 5429 -392 -1156 9037 7454 141 -8727 0
-2195 7125 411 2473 3911 -7021 -350 9846 7738 -455 4154 141 -3643 -4014 -9313 0
6893 3011 720 9897 -356 -1188 -1443 -8326 -9885 -5670 5155 1306 3469 -5100 391 0
1003 9337 -3925 5438 -1004 -3240 1555 -6243 1218 -2675 8807 6834 7605 -7987 -6223 0
4393 -5353 -487 3460 -1290 -3936 7984 5583 3 -5283 -4066 9242 -6787 -7083 3752 0
2077 -7280 -5838 786 -1395 -9960 9446 2360 -3891 -4120 -9790 882 4218 7844 4485 0
-9393 -953 9741 912 -1284 4871 4314 -389 -2557 7621 2666 -8765 -2556 15 7824 0
6180 4687 2497 -7040 -3297 -5530 -3212 4474 4691 4380 6398 -335 2680 -8131 -718 0
1649 2541 -6676 -8502 -7643 1416 -9432 9577 -7831 -607 5736 -8172 5159 -8029 1152 0
-7770 -5903 2199 -8688 9396 -8398 9752 -6378 -7232 1442 -1532 4219 7450 -812 9851 0
-7160 8482 -2081 -1550 -4491 -8810 3043 3687 -2480 -3010 -454 7291 9786 -2358 162 0
-2457 4870 -6223 -8360 8885 -1176 -9975 3515 7856 3483 -4625 -743 5645 7496 1420 0
9184 -8781 744 5814 -8354 9592 -8050 3575 -5622 -7000 -1837 6137 -298 -1929 9124 0
-2738 -142 -9117 -7641 6759 -6865 2948 7270 857 -1024 -9035 -637 -8762 1607 -395 0
2413 -5169 5317 -8013 -799 4072 4649 -6080 5746 5520 -7855 -6655 4327 -9947 -7872 0
-5949 9343 -8764 -9214 -3190 -1810 -6461 -1043 -220 -9239 9288 9753 -7656 -7916 5974 0
-1900 -7584 -9323 -41 -3820 3767 -4003 4856 2069 -3516 4079 913 -7637 -2078 -9329 0
4182 4752 6249 2286 6604 -5043 -3692 1310 8415 -4009 -2928 -6491 1040 435 2549 0
2723 -9500 -214 -8802 -6966 7899 -6242 -9003 -8239 1821 468 -9816 6434 9837 7965 0
-7025 9976 -6771 -595 8853 -6087 4175 -1661 6155 -5808 9277 8614 7377 5051 8149 0
6720 -9809 7893 -4594 -5754 735 -4917 2518 -3226 -9113 2741 9572 4702 -4321 -4835 0
4676 -3876 -4391 1283 8916 -1763 -298 -7734 7106 -1268 4982 -949 9757 -4832 5595 0
5352 -9650 8059 2494 -5816 -9643 -7540 -6832 -9588 -8191 242 1850 -1241 6710 -5890 0
-3397 3705 903 -1574 -4771 -996 6846 5584 4340 714 -2471 6416 -9945 4284 -4729 0
-4872 2734 -6238 4663 2790 -7247 2084 1681 5950 -3762 -3022 -148 -7727 3033 3185 0
-9867 -8249 -6742 -2750 4407 -7695 -6984 2343 -5819 6563 722 1631 3490 -2543 -5070 0
8677 6248 -1350 9684 -4626 2507 8133 188 2276 -7346 6969 -606 1508 9218 4234 0
-6627 5953 -3666 -380 3114 1797 9402 9446 -2222 -6860 6360 -7252 8602 -5719 -9950 0
-3371 -8107 852 2802 -3133 5923 -4197 6804 106 5005 5471 1015 -6856 -2892 827 0
-3659 -7838 -638 -8049 987 6097 3174 -3359 -5944 6338 -78 -8395 9119 3283 -8601 0
-9264 4523 7741 -8306 -1327 8289 -505 7627 -1458 -9885 -8731 -6239 -4335 1975 6309 0
7159 -3416 -6691 6700 -1155 -7498 8470 398 -2268 -7775 1005 204 9826 2501 1536 0
-6240 7951 1788 -639 -8382 -5078 -3182 1343 3476 8994 8988 981 779 1771 7288 0
9464 7301 -1695 7473 5267 -8089 -5969 6048 6047 -3885 6545 7823 3557 9408 8328 0
-727 3425 -474 299 3477 -3219 734 1687 -654 -413 837 8062 6061 -1901 6964 0
6207 4887 -7563 -9697 -891 9799 9665 4997 -673 -9858 2735 -9439 -3545 -7195 -2596 0
2214 -2371 4146 -722 -1063 -4554 6562 6053 9622 173 5874 -791 9996 2513 -8767 0
422 -2482 9593 -2307 2939 8494 -5512 4970 -4986 6459 -7532 -1756 -9470 3488 -4901 0
5542 -8683 145 -5765 -6433 -1543 5173 3568 -5016 1109 4499 3615 7706 -368 3052 0
-1040 -1468 3734 -2242 6836 6515 4629 -1374 -4962 -3677 6886 -4385 -5795 8723 -401 0
8692 2499 -572 7661 -6237 -8157 -2853 8854 -3136 -4855 -8443 -7191 4720 5038 2328 0
2721 3264 -3974 7474 9544 -4320 -7711 -4230 5844 -8468 128 5322 8886 504 4978 0
-1214 1840 2482 -5356 -9442 -5837 -148 6883 3628 -9370 -2183 -2506 2748 6549 -9933 0
-1265 -7987 -5226 -6213 -5448 9671 -6008 -331 2364 -7497 3639 562 -7779 9602 -3105 0
-5605 7850 -4228 -4028 2666 -5448 -5345 2956 9736 -8981 9078 -4452 -5894 5115 -3413 0
1699 7012 1411 6683 9544 1480 -6957 6571 2512 -2758 -8909 -6650 -745 5768 4515 0
-3282 -6437 7171 -9449 -3643 -3513 -1883 -1581 3813 5851 6697 9388 -7139 -4977 -5346 0
-6010 6240 2218 7778 2937 4843 1937 -9767 -6887 9398 -3610 -7984 -6373 6848 -6633 0
-9397 3449 -4182 6294 9046 1058 -1714 -9278 7904 4924 -9905 502 9012 462 900 0
-1017 -438 9369 9011 4556 7545 5068 -1034 -7528 -4867 5647 1315 49 5809 -9147 0
7213 4588 2328 5588 -2171 5886 -9449 -3265 -8830 -8554 -330 -1389 1354 3316 -7607 0
-6589 392 -5576 -1360 -433 -5239 -6204 -1116 -5646 2943 -7956 -711 5717 772 1039 0
315 -1293 -7439 -9911 -3014 6118 -2456 5428 7786 6102 -5180 6745 2689 -7067 9288 0
5732 7535 9537 4709 -3625 -1617 -2357 8428 7893 8056 -4956 4828 -9667 -3288 -4998 0
6320 -1290 4102 -738 -5959 -6003 -6807 -69 -7437 227 -2753 -7248 -9896 3477 -2663 0
8462 -4044 -4824 -8908 -4667 7910 3474 8248 1421 6051 -9741 2432 -5281 -4871 -7267 0
-8614 -9713 -9415 8319 -1271 4597 8292 67 5801 -4468 -2009 -5568 9634 2324 -3161 0
4920 -7561 -800 9353 2606 -7513 1761 1641 7819 1165 3482 9168 7072 8203 6519 0
-9013 6092 -9195 -5344 -7268 5340 -2616 -6051 1689 8342 -2618 9259 9190 9175 -1390 0
-4516 -691 9304 -7373 2036 2213 3525 -7881 -291 9043 4213 4620 5371 5348 -5740 0
-9377 3377 -8419 -5307 -7728 -5564 -745 -1088 1883 2929 -4118 -2279 -1841 -5007 6881 0
-6019 9906 8397 1981 -1751 -9299 -6693 1344 4030 -9676 3287 -6080 -8612 6447 8221 0
-2715 1496 8285 7085 -7388 -222 -9170 -933 15 -2580 6883 -4860 -2305 238 -3417 0
8473 9298 -3683 7367 7715 -1236 -8295 6591 5637 -7148 -9041 1341 -4557 -7413 -6553 0
-5289 6302 9754 -4710 -4716 -6201 -3867 -4191 -9827 3599 -1990 5060 -3923 3476 1704 0
1466 2676 -1161 947 5417 2750 4394 -204 1523 -2269 -3687 1591 -8292 2023 -5391 0
8898 980 4090 6924 -7003 -8191 5965 8588 1006 -7186 3029 5192 -8681 -3834 -8274 0
7394 326 -6638 -9797 -298 8956 3687 -741 5363 6452 -5197 -537 -5831 1712 7678 0
5283 2689 2033 -6380 -6335 4201 6640 -1392 -3295 9701 2281 8599 4196 7692 -9356 0
-1754 4394 -2366 8249 8072 3412 1171 -9256 -1817 9470 1909 1555 -6108 -9018 -2267 0
4100 -9982 -3622 887 -194 -4629 7504 1892 -7855 7651 9514 -8046 7276 5753 -5888 0
9541 3101 2773 -199 3613 -6942 9059 -528 3128 7443 -3909 -8892 -1758 9268 -4142 0
5833 -2666 -2220 -1235 577 -5289 9107 7341 1661 4854 -9147 8032 437 -7150 8086 0
-1167 -1189 -8694 -1762 7928 -6468 -2517 -9927 -1975 -832 -817 1552 243 -236 3031 0
1765 -6642 -8656 -728 -5632 -4841 -3200 4638 8144 228 444 -2865 -3084 -753 -94 0
9773 5845 -1281 659 27 -9394 -539 -945 8085 4476 -6468 4248 -3546 4758 7053 0
972 -9093 -47 4577 -4804 -5135 5218 5569 7428 -7667 1490 4007 3646 3044 -5119 0
-2100 -3354 -8338 -3901 6436 -4159 5879 4046 -9186 -370 -6430 -9003 -5962 -986 -2765 0
876 -2362 2800 156 -4435 -5403 3294 8133 -5914 2654 102 -6783 3659 -7432 -2204 0
5846 9811 4155 -9797 52 5653 -7668 -8007 8935 5051 3002 -4100 3100 -5177 -2852 0
-3816 9479 -1545 7117 596 -4533 7676 -2144 -8975 -4739 -2076 -4284 7930 -1624 2480 0
8474 8963 -1331 9689 -7944 23 4052 -2168 7661 -241 2401 -8999 -2916 -841 9026 0
3324 1602 6937 -7832 9797 8508 -7742 1912 -2518 -8780 -5706 -6647 -8700 6247 -2212 0
335 6649 9246 -9647 -2991 -4028 5056 860 -8867 3810 6451 7041 -1228 1850 1464 0
9678 7492 -4277 -5918 8105 -1033 1184 9033 4134 -7909 -8436 -9210 -8425 -1078 -1960 0
-1345 -6444 -9781 3312 -5875 -1721 9521 -9295 8619 391 -1971 -4929 2070 -2486 6718 0
-4244 -2484 -8785 20 -3556 -1446 -2502 8457 -273 -845 -4598 6293 8490 5852 -5641 0
-8920 -2756 -5824 -5041 -5208 -2036 -170 -918 -8495 7133 3312 6742 5572 -5621 8691 0
2236 -3902 -1610 3145 -252 -3304 7241 1162 -2521 6328 -6754 -7506 5851 8007 -8136 0
-1594 -1302 255 -7212 843 -4300 989 -892 -9819 5358 9155 396 9922 9061 90 0
1811 6190 -3434 -2492 -3416 305 6856 -6551 -5415 -2818 -3963 -8498 4966 -7145 -9622 0
-1720 8882 6273 6968 -3347 4507 6977 -2183 -6958 4036 1698 8676 -3304 3139 -9279 0
9761 9163 -4694 2113 -2348 8241 5300 -3426 2839 2548 -2064 -1799 -3425 7554 1202 0
-8953 6184 -7716 -563 -9974 2779 6483 2275 5512 -8861 7365 -8416 451 -2013 9394 0
8184 4611 -9122 -1046 8479 -8524 4463 -4193 1266 5043 -9779 3716 -9550 -5735 8886 0
964 -2784 2697 2115 2801 -6373 -1166 9418 -6747 -3209 117 -7893 -7143 -4175 -6864 0
-6310 7266 -8723 -3015 -3571 -6530 -2891 2297 5195 5620 2820 -981 -8483 -7763 -539 0
-2139 6719 -8974 9636 5762 -28 2210 8028 9965 9347 7649 482 -7715 -117 -863 0
6300 8834 -8546 2412 -6102 -6034 5035 9328 2271 -6668 4752 -3953 -1206 174 -3917 0
-3883 -2239 3101 4556 4927 -1353 -5176 5344 4513 -4828 -8369 3981 -5764 -546 -4850 0
1413 1507 4326 -1781 338 -3092 709 6855 9494 1560 9306 -8112 -4301 44 385 0
-9127 2508 -7325 9027 4352 5829 7347 7818 -9207 -2381 -8436 -1018 7891 -5890 -6649 0
3794 -1880 -7069 5393 9300 -6853 716 -884 4841 2196 -7843 122 5732 6204 4342 0
-9761 8856 6737 5117 3780 -6123 6381 7106 -4274 6179 2904 7226 -4009 5593 -2103 0
-3132 -3091 827 -6865 9397 1559 -9737 5480 -5757 4820 1767 1268 3747 -2286 -1823 0
-843 7297 -6067 6600 7536 6458 -8799 -2475 4064 9628 9091 -6764 -4243 7397 -6742 0
240 -4979 -2449 -1354 -1346 8256 -4840 -1667 -1577 8640 4340 5755 6750 5171 3995 0
9124 2023 8267 -467 2230 6761 238 -5229 403 -8198 -432 -1853 -2490 -3195 -8965 0
7294 9657 3530 -7250 6633 4511 9419 7810 -7078 -3267 6136 -5688 -9370 -9889 2901 0
676 -9932 7811 3929 7978 4646 -3063 -4716 5397 172 3616 8264 -5774 787 8625 0
7884 -7351 -8790 8967 -499 -1865 -8935 1858 2250 -4152 2099 9987 338 -3512 8193 0
665 3286 2109 6055 -3305 1401 -5539 8905 259 -2095 685 -5197 -1364 1833 -32 0
-2682 -2907 -6473 7938 -5078 -98 4667 -9929 7519 7116 6504 5937 6152 1920 9097 0
-7497 -5009 -285 6712 725 1174 -6877 -9911 3411 -7509 -7364 5372 -5641 8579 -235 0
9877 2991 -8627 2413 -2930 7442 2458 8424 -9226 2701 4053 -1530 -73 4224 -7395 0
8552 2184 -8321 1232 957 -3309 4158 -2811 -2980 -4412 7197 -9587 -3652 8115 1941 0
-4735 -7804 -645 4408 5966 -8410 -1931 8728 -6939 -5977 -6015 -1742 -2499 510 8496 0
-962 -8095 7132 -6425 5117 -2303 4747 -2958 1590 -9648 2902 -9728 -9004 -2829 1014 0
6286 385 -698 -337 6401 -4620 -2319 -8924 -568 1429 5470 -8559 9997 433 -4641 0
-5944 -7041 17 6614 -8124 -3563 9937 -2777 9541 5126 8666 -9210 9727 5420 5014 0
-9374 -3267 5170 -1631 -8352 -7682 1379 -6596 -8185 9725 6652 4967 -2419 -6829 -850 0
-3225 9075 1017 -7233 -360 2275 -2193 9545 5672 9326 -6036 -5886 4038 -7711 2221 0
2227 3383 -61 1209 -9673 -6317 7391 6945 650 1513 249 6245 -698 -786 1817 0
-3753 -9500 -4792 -6498 -1344 6554 2665 3749 -4858 -6229 -2138 830 -1811 -822 -5360 0
6766 -9642 3357 1198 -8837 -5556 -8921 -9314 -8909 6016 561 6816 7308 -3618 1604 0
99 2147 -8731 -4514 4683 9366 1280 -4753 3379 6020 9483 -7770 -4340 5959 1019 0
7649 -9450 -5204 -9264 -6430 -9261 7746 -9268 -5159 9293 -2726 -2161 82 8003 -7388 0
9635 -7137 -5221 -6860 -345 -1804 4986 7416 214 -7710 1643 216 -6875 -9853 -3065 0
-8832 -3178 -9761 9358 -5605 4871 -3862 -9433 -984 -1067 -7765 -7709 -9182 -4530 -131 0
8905 2695 -8015 -4918 3815 -8328 -9326 5483 9411 -3215 -9203 -6071 -8232 8568 -9067 0
4876 1577 740 -2215 4370 2847 -4768 -7425 3110 -1196 1374 5694 -5730 -6078 -3893 0
3184 9114 -5875 8062 7538 -5823 6911 8763 275 3720 846 -6480 -9792 646 -8621 0
-3443 1801 5871 -8030 -7567 2776 3146 1387 9632 5477 3331 4326 -8788 -9904 -6490 0
5856 -9751 7536 1637 -2190 6980 -5148 -9562 -4702 7812 -3132 8837 5078 -6728 2546 0
7315 -8553 199 4200 -733 7846 -9145 9004 3266 -2666 -2990 9442 4634 -7511 1842 0
-2364 -3686 3497 -9768 1223 -1300 -2004 707 -9564 -5074 -2487 4705 7405 4056 8990 0
-8387 -1478 -9480 -2297 1593 5051 -9196 7457 -5130 2738 682 -2360 -5937 6059 6206 0
1045 -5421 6605 4181 -113 3823 -2569 -7091 -5675 4276 -8114 8693 873 -478 -7252 0
-2305 2065 7230 -7854 -7809 4082 4834 -4219 2794 8806 -5236 3993 6167 -8597 -4216 0
-6832 4510 7363 -9817 7135 9997 4632 8039 -537 3262 3475 412 8154 -8285 4724 0
-2888 -5045 -214 2403 -3541 -252 4060 -9937 4748 5686 2997 -461 -2259 -2570 4136 0
2345 5949 9138 -9332 -5458 700 9378 -6269 4345 2551 -6618 219 5567 5000 -2492 0
-8858 -7665 -308 -1647 1797 6678 -9721 -7276 2032 -6076 -6226 3973 -6994 -2904 7285 0
5421 2582 -8814 -751 -2436 1070 7600 7750 -4987 -3238 8568 -2201 -383 -6301 -1365 0
-9114 -5759 7533 5522 7401 -4849 3401 -1841 -3041 -1544 4515 2475 2287 9837 -9529 0
-7345 -3542 2217 6174 -4020 -2601 -8181 1076 -8435 -5646 6247 2230 -8534 -5054 -3080 0
-613 -2004 -5862 6068 8825 4376 2551 -4212 -3569 -3897 -9621 -289 7088 2858 -4979 0
1615 -7385 6818 6456 7275 7468 757 1550 3153 408 -1659 -8875 5041 -2200 -3658 0
4669 -8121 -4164 -5961 8454 -1616 -8611 1014 9154 8791 341 9069 -151 4016 4437 0
-1516 8882 -4560 -7059 4522 -739 6281 -4004 -4866 3912 -1687 -7272 7338 -6157 -7015 0
-8657 7836 1686 -2386 1141 1167 3875 -6492 2501 8804 -5012 7083 -5736 -4076 270 0
6670 4887 -4457 8259 2762 -6856 579 -9150 -9513 9432 5387 -4886 -984 307 5240 0
7096 957 9335 9895 -9037 -2034 7945 1317 519 6036 -6753 -7660 -6648 7123 3856 0
-8709 -4258 -81 -6401 -4584 7332 -4706 -7806 7312 1422 131 4811 1218 9550 5332 0
-2518 3937 -4175 9759 3266 6534 -2940 -5969 -5190 6448 4766 1655 9015 -9563 -3128 0
1705 5433 -8081 3127 -8060 4362 7424 -4125 -8173 -4524 -9545 -3572 -1097 5780 -8520 0
6250 -6795 9699 645 9464 6595 5138 -3794 7597 8196 -9466 6671 4208 -3546 -914 0
-5091 -5333 -828 -2535 -6265 -5930 5631 -1853 2570 7617 1684 7812 1860 -9308 4816 0
-9192 3145 -1956 3334 9873 -6129 -1426 4114 -925 455 -8993 8491 -8522 -2907 -3618 0
-9215 6112 8449 -7720 -1093 -793 -2424 -700 7161 -1294 6052 8412 -2053 -7431 -5251 0
-8410 5452 4634 -3220 7854 -4969 -6616 -9161 3245 4486 -8229 731 8041 9732 1962 0
-5052 -4940 1420 7143 4341 -5669 -4442 2992 9554 -6396 1878 -622 1922 -2623 6036 0
-4986 -2561 3589 6278 -9446 -3991 -9926 3346 -4367 4976 7752 9200 -3116 6116 6132 0
-7672 9674 -9640 1788 2865 -3059 -2159 597 8041 560 -2985 1729 689 1588 -6656 0
605 3567 -8298 4488 -4144 3606 -1127 8247 8181 771 4904 -7076 7352 3515 3918 0
4739 -4690 -8870 -7265 4626 -5819 8383 -8681 -5350 -7987 -7793 -1864 -7174 -5867 8857 0
-1702 7664 -253 -2337 -2030 -9020 -6876 -9657 -6889 8973 1299 9802 3492 1026 -6337 0
-2043 -1461 -796 8498 585 9522 2950 4252 2715 3755 8508 -8663 8649 -7575 177 0
7921 2097 -2599 -1621 -4645 1249 -9954 8802 4701 -355 -3684 4603 4594 -6901 9677 0
-5165 6347 5638 3230 -7833 -1113 -3426 -2032 -982 -1956 4286 8896 9996 -5046 -9438 0
-4968 1438 6393 -4718 8288 -4651 4196 8736 -6009 -6008 4336 -2962 9414 6309 4119 0
891 8591 1769 8579 8529 7804 6159 9786 -9886 9612 6990 -6509 -4799 4450 -5791 0
-8782 8993 13 3876 -6480 5401 3110 5323 -7219 -9232 4869 -2643 1756 -7696 -4908 0
-2115 -410 4463 -6731 -1158 6527 -8978 3750 7351 1124 1197 1838 -4603 -4749 -7568 0
-5109 -4234 -7766 -8878 -544 7879 2696 -317 2222 -162 -5397 9628 1894 -5353 1963 0
2676 9657 -9935 8338 4215 6001 6804 9681 -6822 303 6515 -8833 888 4487 6392 0
2990 5284 -9391 2749 -3995 7261 -8511 6376 3792 5103 -4262 6897 -3556 -8403 6464 0
-2640 9824 -6965 -9459 -230 8659 1085 -1571 913 7869 7294 8677 7698 -8778 5413 0
9697 5850 -2860 -6569 4521 4109 -2173 -580 5131 5763 5413 -6420 3556 -2695 -7052 0
5321 -7858 -2648 2093 -4164 3045 -2477 -8955 -7493 -7601 -9610 -6586 4554 -9888 949 0
-82 -4530 -5083 -1425 -8555 5794 -9072 469 -4454 9858 -9623 -2877 904 -3234 1287 0
-3615 6320 -7413 7970 1043 4223 -5781 -6331 -1731 -7210 2250 9387 8806 -4853 -6658 0
-9601 -7483 5775 3386 4155 923 2800 7863 5819 -9693 -5269 -4333 1958 -4803 -464 0
-8577 -4031 -6677 9496 4893 921 -8924 8386 6221 3775 -4036 -2878 -5309 1190 4301 0
7894 7278 7664 12 5328 322 -6233 -9351 -8109 -3482 -576 -8018 1043 1602 5273 0
-140 8825 82 -8780 1906 1344 -7677 -1239 61 8212 6463 864 2141 -2460 6590 0
3236 7782 -2795 -9814 1197 662 5802 4404 4283 -5655 9838 -500 4529 1958 3456 0
4256 2007 -5546 -4394 3314 7852 7217 -6823 -3637 9156 7359 -4542 -6202 -2579 6067 0
4351 9104 7437 -3538 867 9828 7514 172 -9125 1326 -8809 601 762 292 8116 0
-139 -7900 -8865 9090 87 -767 6894 5498 3464 8067 8934 -7622 -227 283 2278 0
-6998 9572 5540 5680 261 7398 8043 9342 3396 7682 3792 2083 1956 306 -3553 0
-8166 -4333 -306 -6751 -552 -4224 -7220 -8862 -3193 -2878 7786 6039 5164 -4985 -9096 0
-6890 -5700 1992 8255 -4667 1457 -5334 -7493 -7288 9892 -2574 -8993 -3578 3233 3484 0
-2066 1693 -4062 -6936 8778 -5470 3143 7775 -4348 -4606 874 8957 -786 5090 -1559 0
-7505 1537 -8488 4096 -9903 2742 3826 -4448 9988 8034 -3628 9959 5234 -8636 4357 0
5088 -3584 3441 -6559 -5538 8864 -203 8176 6802 -4795 -5982 -773 8247 -8835 -2752 0
-7479 -8809 4851 7457 6117 9615 2046 7910 -2011 -8866 8100 5466 -7927 -9421 -3065 0
-2809 3081 8802 506 2351 -7149 -6456 -3177 -3186 4419 121 -7625 6307 168 3203 0
