c Random formula
p cnf 10000 1200
-7639 2008 -9569 2177 -7502 3201 -9416 1812 211 1693 -672 -1939 -2620 -3849 -6586 0
6536 -473 -9543 6040 7499 3166 -5379 8958 4615 -1409 2814 -9978 5553 -1224 9631 0
-2481 -7204 -7255 504 2732 -9559 6276 -2038 -5905 -2476 3624 -9653 9629 2925 -6957 0
-75 -7177 -3817 -8149 64 7396 -6742 8075 7326 403 9320 -1243 5053 -6661 3293 0
4210 -5889 1723 667 -3277 -5126 1269 4642 -1595 -8539 9213 -6671 -6924 4533 9016 0
9672 -4206 503 7449 -8973 4281 1417 9260 -5472 -2564 2699 9272 -2673 -4879 -2688 0
-2887 3993 9731 7213 -6575 6098 9564 1748 -7573 7086 -4476 -9212 5109 6807 -4720 0
-9116 -9998 6339 7101 -9456 169 62 7117 1469 1111 -2941 4348 -1574 -8622 -5022 0
1367 -1595 8142 -4525 -1810 -2591 4181 5887 8332 -3580 -4441 9639 -1936 -4871 3026 0
-2655 9303 -9281 1997 -7113 1373 -1789 -8958 -9736 8295 -1599 -1947 -1861 6133 8205 0
9811 -6458 5632 3653 7900 4935 -3203 7138 6348 -4984 3808 7131 -8163 -7367 -4595 0
6209 2776 8105 1533 -5862 -1483 7691 605 2853 -7205 -7797 881 -4783 5153 8424 0
-2975 3347 4469 -7983 2913 -9484 -4776 4189 -3839 5940 4075 -7698 2559 7217 7685 0
9316 7679 -5268 -5496 -1134 6758 2413 3078 -1945 9932 -9288 3834 5827 -6039 -5318 0
1109 -7595 7445 2451 8224 710 -1193 2627 -7014 2008 7531 -374 -3463 5176 -8268 0
-8732 -4084 1900 -6181 2295 9207 6169 -9656 8957 -7395 -858 83 -2112 -4221 2748 0
7799 -5681 -7933 -2356 -4537 -672 -4396 8360 5659 -4534 3081 317 9157 3490 -2104 0
3645 3383 -6230 1959 -2818 9894 6533 -703 -7989 -5106 -1490 -5655 9738 -3681 7329 0
2284 -5235 -541 -361 1954 3512 -1246 -4031 1852 898 6435 5362 -7707 -4370 7844 0
884 4282 5580 149 5714 1852 -1481 4022 -103 1102 5393 9587 8927 -7173 903 0
2870 2505 8675 8906 -850 -4529 2232 9312 -4680 8914 -843 7784 8856 -7921 -8229 0
7182 -9283 -3548 -7947 -8844 6038 497 -4183 5384 -4696 2996 8452 -7893 6627 5248 0
-747 3897 -8760 -4161 805 -6476 8271 4756 -5479 8544 8014 -6828 6840 5692 8034 0
-1865 -5788 -1348 -3930 -8001 -4664 9157 -744 8221 1424 -3615 -4888 -1003 -5808 -6784 0
-4345 609 -322 -991 8355 1407 -3326 -8287 -1596 -9185 4933 6431 -4984 5977 6191 0
-487 -7524 -4117 2251 -417 1152 7915 9790 648 -5124 7713 -103 -5361 4570 -2955 0
-4800 -8909 -7007 -8816 5875 -2415 7063 4729 9365 -13 9261 8124 -8537 1951 -871 0
6037 8162 8850 6000 -3693 2837 5121 -8389 8391 -4414 4007 9188 1710 -4711 -3528 0
6440 7688 -7968 -2584 -7846 -2316 -8849 -4001 1812 -9080 -8492 8113 -1727 -2365 -9763 0
-9844 5156 8493 4010 -9678 -806 1026 4803 1351 -8637 5985 6262 -4285 6239 -9085 0
4248 6351 6088 -204 5451 6983 -5528 6410 4844 8245 3350 -3219 40 528 1177 0
-9584 -6430 4610 5665 -6045 9938 -5142 -5254 -7998 362 -1391 7066 -5723 -9891 -1643 0
-1374 8584 -1901 2147 -6410 8937 -1553 -9186 920 5523 9531 -550 6601 -549 541 0
-9640 9795 9842 -7862 -7294 -9264 -1151 4051 -2226 6517 7160 -7713 6076 -9094 -838 0
6468 -7070 7683 3938 -2169 -1119 5222 -6437 5910 9578 1121 -8451 -834 -3996 9353 0
7844 1254 1683 -357 2759 -4320 -8908 5266 -1149 -7623 6588 83 91 -6963 -8521 0
-536 9811 7907 -7062 -2622 3171 -2644 -5467 4278 8126 -8029 -2904 -7171 5775 4307 0
-8153 2927 8407 -7968 -8447 -5240 7433 -3708 8260 9836 2990 3302 5508 1473 -1612 0
-8381 -2588 3606 5298 -6137 276 6661 -6499 4627 -2299 9837 5610 -1334 -9679 -2721 0
-4948 -5041 9024 -6216 9004 9544 -1078 1202 -882 -4619 4944 -8888 1991 8454 -9147 0
-2447 4002 6907 9385 -2934 8400 2513 -7625 -3731 -985 5152 7491 -7489 1479 -1267 0
-9548 8067 3409 3731 1515 -5605 9476 -961 -7041 2832 -1679 4443 1905 -2486 4970 0
-9159 8418 -7598 -6657 1536 1330 -5363 -8731 9122 -1682 -5789 249 3392 6119 -6538 0
3342 -3712 8836 3528 -4469 -3198 7356 7138 -3936 3743 -1390 -7972 9726 -1921 1425 0
-968 9172 8915 3848 -3032 -8079 -8935 -6880 4543 7555 4996 4723 682 3807 6744 0
6456 7276 1293 9065 4528 53 -1266 -4401 5927 -2512 6949 4450 3255 7926 -6452 0
8773 -1348 5741 7397 -3213 856 8371 -4199 5604 -6237 8005 1760 -4540 -1833 7636 0
7904 9915 8494 3020 -1200 -1701 -2197 -385 8639 -7402 3688 1376 6113 6680 -1467 0
-436 1331 -6781 -6679 8104 -9789 4265 -6788 7486 1703 8883 -1567 -7417 68 -7190 0
-7842 -8330 -456 4533 -4255 -1102 7647 -705 4607 6082 3245 8094 -1238 -1892 9753 0
7805 1898 -4663 3325 -955 3170 -7304 4814 6921 -4794 -2522 7555 -6270 9829 3300 0
7371 3549 6411 -7156 6974 3573 3376 9209 -8971 4517 8121 8641 9130 -4652 2394 0
-4673 3287 9349 -78 1654 5262 430 1289 2423 -2281 993 -843 6568 8974 2172 0
-4149 -9515 8082 1599 7278 5516 -1126 -1252 -2927 9446 1801 -1975 -9106 -775 7401 0
9316 -5158 220 -4445 -4644 6898 -5968 -9240 8549 -3704 758 -3787 2770 -731 9624 0
-9902 -4614 -341 6560 6024 -6269 8988 5589 8513 -8395 -2354 8420 9309 -844 1506 0
-7884 9761 50 9744 4674 -762 -6352 -963 -7145 7031 8156 -250 2633 7257 9227 0
4855 2431 -5003 8092 3274 -968 153 107 3794 -4049 -1784 -9893 -6892 -6539 246 0
-4058 -6391 9010 9544 255 -5157 -6635 -2075 7928 -1840 -1635 -393 719 4855 4966 0
9721 1350 1525 7170 1269 -2147 5060 7663 -5340 6897 8976 -6086 -7248 1111 2537 0
9862 -8912 -1227 -5524 -19 7703 -8483 5648 1289 -4465 1674 3981 9291 9024 2137 0
-8677 -1005 -4721 8294 2446 108 -9579 7861 -7173 6407 -7255 1078 1353 -8962 -1971 0
2398 -368 -6533 -5489 2836 -7644 -6996 19 8978 -8562 -6870 5993 6407 3627 5367 0
347 -7989 1095 8559 5656 8903 -221 -6129 8258 2483 7009 9589 4234 386 6131 0
1003 -3985 -7899 8280 9560 -9987 2539 -1271 5589 3795 1751 -437 -2692 -1234 5264 0
-770 1818 -592 -1004 -3684 8938 6836 3997 9189 -3073 4082 9800 -5973 -4740 -1464 0
938 -7224 -3590 -4514 7232 7256 8647 -3073 -497 9627 -8317 -4524 -1519 -6601 4477 0
5777 3112 -2350 -1751 7105 33 2409 -7841 6426 -6067 -8672 2372 6442 -2341 4631 0
4978 5636 -8725 4318 -8225 2813 -9195 5524 -7691 1189 1314 -1036 4864 -1989 -1730 0
3835 -8732 -5937 -1996 4537 7345 2222 241 5145 -715 6866 -4447 -1954 -7030 -9757 0
2682 -5672 -4886 4117 -2097 9576 6465 2656 1289 -1549 1367 -7051 -8488 -943 -8580 0
1032 6633 8062 2585 -9472 3906 6522 -109 -7931 -4547 6915 -4609 -8265 -5942 2079 0
3711 3339 6687 -1327 9501 6589 -5804 -8356 1515 -1605 -7900 -6137 -428 2335 7989 0
-2336 -9278 115 9584 -4777 3563 -981 9940 -4384 -4366 5105 -8490 7670 7357 -1217 0
-8243 8942 -4723 7680 -962 637 1341 -2871 9596 -57 -7481 6601 3316 3690 9258 0
-5444 6813 9229 -5147 9883 -5641 2706 -7818 7085 -4976 -2592 -1492 -9804 6357 5316 0
-4703 3542 7453 -7443 -2879 6752 5942 -5253 8995 4360 -7300 -928 -3116 -9457 -6039 0
-8220 -5318 -9788 -2236 -3697 -1713 -8098 4975 2075 8130 -3481 -9310 2213 4322 2055 0
-3489 -1396 -1097 -9234 -2221 8851 7216 4059 -9418 9134 5865 -6096 -8764 4620 -1693 0
6858 8208 1370 -4440 4996 -5607 -8932 6137 -7333 3165 8876 -9224 9782 -3828 4054 0
7497 -4335 -2692 -6234 -2397 8535 -2265 6622 -8831 -2086 -7908 -8850 -1252 9515 -9016 0
5829 7758 -1433 -5001 -9259 2633 1366 5658 4810 -377 -2994 -7729 -629 -8480 -8838 0
-8440 -9417 2888 -8127 -2338 -1017 5491 1898 -5229 -4213 368 -3934 743 -7317 7102 0
8512 5803 -3100 -2313 3301 -784 2487 -3117 3593 -8432 -3545 405 3260 8361 9564 0
-6437 9052 8245 3665 5634 52 1658 492 -3122 -1942 -1009 5173 9126 -6277 -4902 0
-6783 -5766 28 -5815 -4055 3696 -7913 -927 8180 5713 -4404 1204 4613 -8369 -3068 0
1604 -5809 -16 2667 1903 -9198 1866 6104 -6387 9646 -4610 9521 -8470 -730 -7183 0
-8446 5989 1166 1083 -9772 -4270 -4735 8455 582 8550 9431 -3851 -7681 3904 -7648 0
6665 -3025 -5776 -1750 -2634 -2516 -232 4616 -6590 9335 9569 2943 8884 1949 -1060 0
5782 6222 -8166 -1871 7221 1771 -2365 -4282 8218 -5472 -2671 -2693 -3266 5411 -6118 0
-301 -3905 -4051 -9808 -3494 3205 2526 4034 2565 -7906 -6415 9990 -6925 8726 353 0
-1249 -8167 -9094 -7761 -4969 9926 -6746 8564 5980 -6044 9624 5002 -9440 3134 9150 0
9811 9947 8235 -2765 3734 2884 569 7092 -857 -1013 4027 -1966 5243 3104 -8400 0
-3617 572 1910 -3613 -3366 -8057 6427 -7152 -1094 8990 -7604 1062 -9242 9187 -8288 0
170 7885 -3173 -754 3962 -5550 -9486 -9944 -3629 -3454 9334 6256 -2906 -9281 3759 0
2503 -9308 -7214 -2274 4069 -1393 -2865 8222 32 6331 -8630 898 2515 -14 -2947 0
-1675 -7343 -4438 -2453 8874 4812 1633 4010 4891 6150 1 -1728 -8272 -5292 -4722 0
-8009 9821 6842 -5562 4218 -5716 -4370 1714 -1653 2667 -340 -4557 631 -4900 -2720 0
6799 5886 4146 -8025 5310 2552 -8110 -3772 261 1099 -6681 -3746 -9331 -1785 -5843 0
7064 7031 8729 6961 1824 -2480 3834 6937 -3960 -4040 -5704 6179 -2072 -5216 4141 0
-9643 5508 -4773 -5684 -8738 -7583 -978 -5719 -640 2241 -5699 -7786 -8331 6599 -5154 0
3475 1102 -3887 -176 -4410 -1315 9726 -6497 7197 3727 -3175 -3719 8880 5468 -1728 0
1827 1094 -1884 -2620 6069 -4717 8675 -7872 -7113 -8582 -50 5976 -8784 5233 2754 0
-6518 9982 -5378 2008 1287 -6383 -7019 8399 5063 7219 542 1695 5894 -2524 -2661 0
-1105 -9276 -7932 -4889 -6783 -44 7830 7052 347 3132 1377 -7234 -9286 -7444 -3471 0
-6027 -1637 6918 -892 -5770 6728 -8153 -3858 -2147 -3114 9439 1601 9770 8547 5354 0
-116 190 2354 -3485 1315 2475 -6909 -3588 -3573 -1307 -9897 705 -5431 -8918 -5905 0
4228 2772 -2166 6104 2886 5583 5234 -4399 -7515 8454 -888 -5802 2965 5924 -5148 0
-5394 1762 -1246 -1748 6253 -8710 -3987 2266 -4666 732 5085 -1536 -6490 -49 -2753 0
-9757 -8289 -8499 7719 4755 -5414 -8473 9683 -8290 -6054 6074 5396 6594 -9870 -2842 0
-7857 7171 -2338 -7635 6940 5702 -3679 7365 -5361 -397 9469 -2005 -9652 5512 9813 0
-7798 1303 -320 3180 -6159 1515 -7809 8169 -5983 5613 4979 6292 -574 -9448 9074 0
4633 -4766 9960 6162 -3821 -8949 5155 -2941 -3473 -9295 4156 -7276 -6506 -1023 -5027 0
539 -357 293 9953 9135 -9018 -8143 2888 6650 -1095 -9055 7379 -3132 8562 694 0
6136 8515 -2343 -8528 -8574 -415 -5644 3724 -9612 2926 -761 3039 9416 -1808 4163 0
-893 -4524 -964 994 4378 6371 5969 -1140 5201 3158 1314 -8970 3503 8933 3799 0
1119 9681 -9025 -4235 -2509 6788 9016 8587 5626 -6332 -4548 -9058 -5880 672 -7537 0
9679 -2623 5773 3742 5005 5444 4680 7197 -6405 1373 9682 6130 -8987 8053 -2245 0
1851 2378 2715 4791 -8001 -518 6487 1091 6657 -1300 2994 9694 -647 -9629 7168 0
7589 787 -7588 -2353 -6737 -3485 1529 -5062 6625 4888 2643 -727 2444 4727 1575 0
-8650 -2407 -2450 3398 -1970 -9019 780 -3163 -4204 8941 -1669 185 7453 -5069 -9148 0
-9966 5042 -9583 -1357 -2253 -6560 8022 -157 5465 1754 778 -7104 -149 1314 -2171 0
-4535 5903 -8984 -5647 8627 2411 -3946 8299 8015 -4747 -8499 289 -3516 -2891 -8441 0
3593 -1917 7448 -597 -3279 8855 6775 6971 -9617 7140 3349 -4887 -6590 -4 -1669 0
3225 5705 -9611 -3995 8186 -6146 -2460 -6358 4930 -3117 5986 -8655 -955 7784 -3012 0
9283 -4669 -1818 8571 -7337 5761 6326 -3249 353 -6228 8025 -3922 -2824 73 -1171 0
3095 3921 -9402 -704 5739 9150 560 5165 -2955 -9285 4799 7570 -7301 348 -2902 0
-4907 -354 1013 9392 -553 -2042 -4756 -1829 -4268 3949 -2631 8601 -6276 -4541 4642 0
568 8534 -9420 -3341 -6742 3672 4911 2802 4296 -5797 -2537 6122 -7009 4741 339 0
6490 2945 -9598 7194 2415 -861 4255 1971 581 -6603 5303 843 9945 3879 -5471 0
1345 -1023 8793 -3681 1996 2302 -8978 3223 1519 -2400 -7868 -8229 5671 -5942 1052 0
-9340 1956 9212 95 9506 7314 6067 -1221 -11 772 1743 -8394 1401 -2826 -1345 0
-1227 -9874 5675 -5337 -8205 -7010 -1900 -2356 8317 -5202 -5339 7796 -3455 8789 670 0
-3611 -9089 2650 -6121 7378 4661 -4626 -3702 -2666 -7192 -5227 5550 -943 3320 -9112 0
-304 -9540 -8228 1577 2970 4373 845 -9727 -4923 -8483 -3383 -7832 -1776 -3704 4570 0
-9849 -6926 -1668 -624 6804 8956 -7265 8738 3861 9850 -4720 1405 3241 8473 8404 0
-7495 -3339 -5874 1348 -4759 6528 -2001 -2871 -1732 4210 -5067 -9298 677 52 -1691 0
3893 -555 917 5565 -5040 -7283 3309 2446 8623 3258 231 6351 -4616 -9662 -3 0
3040 7594 8948 -7175 -6517 3948 -9330 1524 -2004 4129 3457 -9058 6136 -2788 -3846 0
-384 -4784 -3507 8988 7864 -644 581 6733 5995 1751 -4869 9017 8057 8060 948 0
5386 6191 4665 -4783 3638 3785 -3096 -9187 -4896 -1701 616 -1470 2579 3447 -3543 0
-9329 -1145 461 5458 -6919 -4626 378 -9254 2952 -3182 437 -4013 6794 7970 -6671 0
4844 5957 -3192 5638 -5482 -8350 8921 -5278 -4666 9858 4494 6550 9655 7268 -7055 0
5500 -3853 6085 -7258 -5659 -7367 4832 7877 -4030 -5093 991 -1678 3625 -9415 -8265 0
6435 4201 2252 -1459 3644 8095 8124 -4721 4477 -3789 1031 -9715 -8803 -859 7404 0
-9330 9546 2745 -1262 3520 8050 -4975 -2196 -3001 2886 -1087 -4649 4572 6461 -8984 0
-9106 -4910 -5552 8749 -4543 6208 3151 7662 -5407 240 5044 4097 -2316 -509 494 0
-3618 -6644 5522 9216 8688 -449 -3999 -5496 6180 -4724 -4466 -7807 1050 2198 -3182 0
746 1358 4109 -1788 5377 -7175 -4385 -7499 5029 -4908 -6455 -5123 -9345 5970 8847 0
5247 7621 -5239 -7798 -8404 5007 -4442 8314 340 -2502 -1207 -9521 -9960 1157 -9766 0
-3779 7821 2450 9464 9307 -289 2447 -8022 9767 -1170 7033 9873 1173 -3892 9217 0
3819 9257 6674 -2138 6603 -1676 4855 7075 3690 9387 2908 4503 -5968 -1371 5181 0
3836 4970 -7155 8891 -6616 -6501 -9610 4804 3123 3661 1501 -5414 2677 -198 -9257 0
2496 546 777 -185 -7135 -6918 -6269 727 7604 9526 -9902 9411 1768 9918 8580 0
5821 1938 5509 6915 -3706 -983 -3118 4317 -5181 -970 -6147 151 3533 -5999 -5378 0
-6938 -1964 -5848 -6449 -3482 -1068 688 -1139 -2693 -4197 -9758 -3204 -3004 1382 3316 0
5205 8793 4637 -2163 5657 -4383 4944 -5938 -3475 -1415 -8158 -876 7797 6931 -2066 0
8467 -668 -2123 3609 -6570 6091 5045 7108 -3464 -9336 7834 8171 -3229 5752 -5835 0
-4064 854 573 149 -2949 7887 -7951 7429 -8136 -1651 9324 8029 9077 -2401 8677 0
263 5476 -1985 5211 2573 9878 6724 4233 -1908 2347 -4850 9122 3438 -9691 -1253 0
-8332 -6764 -9749 -9147 4754 -3111 -9393 -6326 -7782 -8333 8020 -4838 -6061 2710 3727 0
-1018 4589 -4635 -976 9917 635 2005 5730 -862 -6252 531 -9772 -2073 -3339 2758 0
-640 -8850 4575 731 -2981 -8308 9772 -3286 3323 6456 -6573 -8766 8701 -6787 9471 0
-6903 -8337 -9979 -2534 -9878 987 8622 -9334 8793 -5065 9933 8487 8944 8221 -3394 0
4791 6455 9590 -1638 -8333 -1813 -959 -9165 4163 -298 3204 5785 9950 -381 5754 0
-6498 8185 5386 -9598 8336 -4233 9917 -6785 -5257 -9127 -514 -7739 -4113 -9512 923 0
-9122 -3329 -970 -8969 8842 7236 7127 -97 1648 4782 8735 1128 -8095 -1139 9964 0
5577 1028 4636 -6782 -6993 -909 -8791 -6817 -3078 -9544 -2638 2065 3515 -8429 -6667 0
-6803 -4264 7238 1576 -7084 8479 8475 8855 4602 -3523 285 -4043 -6522 -3657 7267 0
-7332 9910 -8352 -6626 8064 -8946 4172 4557 117 2469 4418 -9964 7116 -8428 8652 0
9067 9037 -394 1923 3956 2587 -6628 3868 121 -4350 -3383 -1275 -8613 4577 2768 0
5378 -97 2781 -1493 7186 -9724 2434 7046 -2987 5494 4805 7519 -4583 3049 9148 0
-2463 -1648 7672 -2200 -5092 -5017 -2386 -183 4190 4584 1108 7495 8979 9617 -5459 0
-5244 -9433 1731 -7716 -9266 -6152 3263 -3657 3532 -7978 -3566 4659 8384 6134 9307 0
-5330 8537 1288 -4362 1799 -6990 6520 -9431 -7280 -863 -3774 -7295 -2665 -7493 6163 0
-7199 -2394 3958 -207 4025 -1634 1893 -8705 9649 -1173 7430 8974 -855 1666 7637 0
8246 -3567 825 8565 -4053 -454 -1604 -8758 3007 -3941 -4969 9075 1101 -3925 -1916 0
-7327 8613 -9047 8745 8034 2331 1519 -4927 -1129 -5356 9925 -2904 2206 9642 2009 0
-515 5030 1817 -6306 3452 8754 8552 -4456 7922 -9625 9283 280 -9331 -8906 -1464 0
4053 9335 -4825 2717 6919 9544 5033 1323 4797 -8274 8020 9249 -490 4917 -143 0
-7799 -2147 -8554 -1339 428 1920 5901 8451 -4357 -8427 9258 5247 -3247 -148 -5904 0
-1957 -3956 -415 8483 -8083 -7469 -2803 9839 -9766 2608 -7423 4028 6042 6409 8571 0
-5960 -1226 -2671 -8717 -4245 -4694 -1157 -5443 4039 -2708 2677 9767 -8954 8045 -7108 0
2405 2851 -8420 -5813 6236 7793 -8271 -3645 1182 1944 -6249 2228 1999 9631 -4496 0
6147 1027 6381 4756 4830 -5468 -8170 3215 -346 -9679 -3578 2109 -5170 6557 7312 0
1084 -9757 9361 -6074 410 -7517 155 6386 1365 -133 -9269 4110 -5520 6476 4982 0
-4942 -4366 98 8322 -5939 -454 -5090 8008 233 -3336 1750 7717 1082 8881 -4129 0
3871 -9803 -3979 1532 -1991 9041 2258 456 -6869 -8333 4161 7054 1713 -3939 -6393 0
-8261 2672 5811 1856 -4046 3742 794 -6911 -155 -9608 7802 5653 -7898 6405 4147 0
-7041 -2242 6609 7006 -212 -2016 -4374 8565 5239 8152 3187 -7027 -2503 -7978 -3317 0
-9592 -198 9120 1774 7680 -9672 1249 333 8271 1570 192 -2355 -3603 -8501 -1866 0
-3914 9508 -6867 9387 -396 8307 -1709 9391 -7652 -9154 -7042 -4110 1044 -2787 -5539 0
-2014 2171 8176 -5386 9134 5695 -5590 7674 -10000 8990 1244 9015 -6269 -9359 -2242 0
566 -8870 662 803 8761 7784 -3358 9006 5678 -7903 -6560 -3039 -1083 3713 7669 0
203 6659 1974 6155 3244 4141 -5798 -2609 8794 3847 3669 6577 1350 9806 -2359 0
-3089 3126 -1022 8089 -4225 -4756 7389 262 7900 9302 6427 -1454 -125 -2422 -6819 0
-7023 6341 -6852 -5176 4803 -9730 8635 -9285 6039 3310 9877 -7387 7640 7723 9638 0
-8997 7645 5010 -3190 7010 -468 -2498 4519 -6717 -2606 2637 -6831 -1047 -2376 6815 0
3050 -3384 -8868 -161 8239 338 -5833 -1952 -9122 -1391 3387 -7439 3172 3344 -4306 0
6313 -9174 7808 7068 244 -6002 6677 1067 -1051 8481 8302 83 -9502 -8582 5980 0
8337 -7037 5660 1021 1951 7365 9755 5528 1169 -3831 9531 -6589 8029 -8665 -1442 0
-3542 3563 3077 5015 -6837 4440 4988 -8022 3849 -1096 9883 -960 -1147 415 8324 0
9447 9899 -4888 6518 -3483 6713 8615 1147 1123 -1943 -2298 441 7277 9623 -2356 0
-3312 -5243 3242 -4162 -3992 -1259 -4127 5378 -4583 4749 8989 -1727 -7414 -8117 -4931 0
1124 -5068 3539 9838 4760 -7111 -2074 -4726 1218 8502 -2814 -1034 -8042 8961 9326 0
493 -4061 -7333 -7026 -140 2690 5613 -3175 -450 -9278 -30 8499 6953 1565 -8998 0
-6741 -9789 -6147 -5719 4130 -6331 -7367 -3906 -1712 8104 6822 -7782 3559 7573 -45 0
842 8159 -4427 8968 -146 3881 -9290 -6153 6655 -6805 -3214 -6278 5144 8047 -5454 0
3479 4701 -593 711 -3330 3292 -6164 -3507 -9568 3900 -7724 -2486 683 5852 6235 0
-2299 215 -4477 5886 -5767 8050 328 1111 3692 2377 7312 -428 -4913 9344 1195 0
-9693 -5526 -8500 -4997 -6828 2969 -8366 6835 7182 7176 3716 64 -1104 3572 4737 0
-2078 7825 -8807 6099 -6097 4585 8757 9825 9421 -9121 -2553 -5314 1522 -6386 -503 0
-7049 -7819 9857 993 -9572 -2011 -1206 3699 -992 -8768 -9955 -3557 -968 -4792 4557 0
3379 4203 5187 -9447 3538 326 -4801 -9793 -6993 -5162 -1110 -6736 -2754 -2826 4213 0
7589 -3766 4131 2555 9362 -7813 -5264 1268 -318 -5306 -4594 758 -4312 6670 7173 0
-1846 244 9086 2505 1607 3161 7541 2201 1196 -3020 -8298 -7390 -5781 -1239 -6431 0
-1435 7547 1039 -3690 -4075 379 -9036 1861 4006 -5776 2134 -2510 9045 -6241 7243 0
-8467 -5046 6922 -292 -7617 1284 -6064 -9096 -7003 -8261 491 -3827 8474 -8026 4157 0
-7073 3118 -2756 -3142 -2770 -8450 3003 -9665 3882 9904 2959 7119 -6189 4146 -2749 0
-6405 -7445 -6415 8065 6531 -424 -5464 6572 3793 3840 2431 38 -7353 3036 -6573 0
5959 -4348 -7446 3901 7632 -1929 -8817 3329 -7492 6771 -6665 1772 -5716 -3975 4291 0
-7260 -7649 -2542 1953 3591 1472 4595 3668 -1810 2493 5889 392 6939 9914 -2237 0
4095 -8732 9734 -884 -8065 615 5195 -4599 875 -4104 -6769 -3191 -289 -7223 -4797 0
1804 -7629 -4186 6912 9490 -8677 -5009 1386 -1430 -3198 8188 8535 -2719 -3678 9412 0
-5739 5550 -6230 -1803 6246 -8821 -2210 -3234 -1475 -544 4885 -6599 6030 3252 -4189 0
2173 2913 9345 7956 -685 -9587 392 1439 -6600 -561 1542 -8943 1014 4978 5124 0
-1906 -1985 3945 -2585 -4557 3735 -373 5321 1638 -9582 7044 -9557 -8034 -7410 705 0
-556 -4984 -6430 4675 8093 3076 -4824 -5472 2762 1370 -2910 -8269 -781 -2063 2594 0
-4332 646 5979 3542 6219 -4027 376 -4629 9523 3107 3237 8490 7554 5360 4013 0
-6861 3322 1550 -6151 2366 780 -3137 4274 9431 5789 5448 -4210 5142 -2119 5527 0
9850 6345 -5832 6618 5961 -2148 9840 -6017 -5891 1209 -4691 -9715 -9935 -2005 4143 0
-7679 -4235 -7558 -821 9785 -3283 -8755 55 -4928 -2596 980 7965 7165 -1663 -3009 0
7369 -5195 -4532 7899 -6601 -3422 -8808 -2879 -1528 649 -4701 5348 -1423 -3295 -1610 0
7802 -1420 -2142 7617 -5638 2762 2334 3371 -610 -4283 -9057 -7451 6489 -4330 -9933 0
-4189 -7214 9863 -70 9068 5802 -3383 -5856 -3604 1859 7191 5524 -5390 -4601 -3605 0
8329 8943 -8503 -2684 -4698 -5239 8300 3010 3548 -1835 -6033 -9290 4152 -1102 -9267 0
-7889 -7643 -513 -183 6687 832 -3126 -8387 -9935 -1463 6039 22 -8334 9138 -6590 0
4168 -2517 957 -8736 712 5501 3996 -1163 1265 3245 -8047 7152 -7514 6600 -289 0
8846 -4004 4797 -6893 -2566 -7217 8751 2904 -7358 -7998 6265 -3169 -1234 3354 8913 0
-1714 -2890 -1925 2594 8103 -787 312 -7010 -7505 5492 1340 7635 8054 3568 9229 0
429 -1624 3958 -8484 -3565 -165 3075 -9784 -9492 -1152 -2950 4569 -8631 7097 -7141 0
2706 -3150 6266 -5522 -3630 5328 2533 1834 3065 -4354 2222 3676 5360 7878 7493 0
1903 6160 -2172 6495 2132 -9210 -4565 -8564 -2756 -9829 -7270 8585 7688 2551 6391 0
-3882 -6473 5716 7997 -2857 7497 -799 -3452 -4964 -9475 -7 8004 -9450 -7589 -397 0
8443 9181 -5316 -6548 6381 530 9098 7963 1261 -5903 -7408 -157 3552 8073 -3232 0
2895 -1761 2354 6155 -9775 -6942 -4359 7813 -7643 8948 -7086 -7049 -9566 -7199 3532 0
-4710 -3333 9562 3032 -9648 -9060 -3643 147 6871 2544 1226 -946 -5109 -9150 7723 0
1945 -8723 6011 2225 4662 -8664 -7955 -1721 -9838 -9307 724 26 2538 -498 -8560 0
-382 9385 2204 806 1830 8079 -6761 -3898 3144 -7775 8477 -425 -3841 -6747 1956 0
5388 -5955 -7953 9355 3270 -726 -9708 3242 8416 7667 -620 1723 1142 4077 -322 0
9238 -9375 -7395 992 -8456 2101 4540 4150 1526 -1897 -1556 -3819 -5294 -6947 -8312 0
-5526 4643 7837 9132 6256 617 3913 2845 -4102 -6467 6604 6534 -4320 7012 -1984 0
-3319 4760 5895 -7326 6217 -6838 3179 9816 -9085 3097 -9602 7088 -3560 9084 -163 0
3828 949 -8378 -2270 7506 8685 7204 -7591 187 924 -5876 -1749 -8324 -6684 4676 0
-8555 -8019 -6249 -5474 7744 8561 -5232 9360 -9192 3609 -8707 -3012 -4709 -9821 1852 0
-203 7089 -1702 -1548 -8457 7095 2880 9853 -4561 9891 -3622 5419 -4626 -4035 9943 0
5776 -5521 1863 5332 -121 -5164 -8156 259 7814 -626 5027 2817 -7550 6281 7462 0
7784 5718 1537 -2165 7071 5163 887 5858 -8745 -4079 9136 -6152 -9226 7495 -3655 0
-26 5803 -6868 -2126 6136 -5505 -6064 -9786 -8260 -220 925 8703 6025 -8797 7113 0
-6195 -7899 3430 -6333 -1742 4263 -6964 -263 2235 -4134 2602 -1255 -960 -2139 -7865 0
-9770 -1408 8370 2756 2364 5499 3373 5003 -8850 -5925 8412 6172 9015 -8573 4713 0
5327 -9253 -8715 -9853 -3604 1088 -4002 4309 -8134 922 -6229 -3989 2844 -697 3288 0
9550 1822 -841 -6341 6653 4370 -4635 6916 8581 -9193 -7813 2021 -2293 -7922 1169 0
9395 2783 2914 9369 6372 2469 -6376 -2140 -934 9664 -1358 4053 -3979 -9752 -4481 0
4826 4371 -389 -3517 1892 -3136 -9682 -6985 1058 1540 -3652 973 5722 4387 6436 0
7221 -9847 7649 -6023 4995 5565 -6017 4842 3519 -4635 8337 -4750 -7592 -5001 8270 0
9114 -6742 1679 -3036 2882 7619 5741 797 1139 8926 4585 -4292 2874 -8987 -3653 0
4476 -2091 3085 -1286 -1317 8744 -6140 -4936 3041 -7344 -1752 9192 9237 2917 752 0
-274 -1657 -4518 9449 -4293 4928 -7528 -3593 -4185 -4268 2132 -5668 -2018 9322 3863 0
-6707 6720 -9550 2356 6232 -5614 -9140 426 1835 9735 -6565 7326 7796 412 -2987 0
3223 -1707 2568 -8380 -114 -2334 -6856 3192 -8478 288 -5985 7893 -3818 6739 1714 0
-8239 6472 2323 -5352 1255 -2504 9365 -7323 6001 -8903 578 1739 -3622 -6291 -6397 0
4725 2708 9623 -4334 4828 4547 3707 7479 6207 -2283 -3028 1274 -4863 -188 -3617 0
7436 5284 -7489 -9813 -4613 -5445 -4167 -6543 -9059 -8908 4837 -7124 5682 -5416 7698 0
-7650 9163 -455 4172 -2273 -2916 8107 -7196 -6449 -1098 -9224 -3511 5001 -3777 7102 0
-6300 -1349 -2159 8982 5723 8779 -2413 7278 3509 5327 -1167 3172 7714 -4477 -6149 0
451 -1249 -5926 7078 -2738 6366 9253 3909 -9926 8387 -5569 512 7053 -7233 -8678 0
4397 -3493 2927 752 -1443 -6347 -2059 857 5741 1787 -8360 -7369 1589 9054 -5542 0
-3790 9832 -4222 2496 5343 8157 -181 -836 -194 -2697 -5711 -1502 5830 -6823 -8460 0
-766 -2027 -8822 162 1598 -4689 5389 6883 495 -8036 -1233 -3836 -4537 5814 7051 0
3311 3635 3066 3948 2748 7726 -7010 -6811 2968 -1365 -6367 510 -2324 -3420 -9220 0
-550 7288 -3470 -4012 8193 9912 5838 1991 -8485 -7029 -3841 2902 -8286 -646 -91 0
-3604 6759 -6960 -1496 -7341 9047 7824 6506 -7074 -8015 454 9907 -6430 1057 8167 0
-4347 1794 6366 -7853 3692 1837 6259 -5863 -4286 6172 3904 1064 6657 4937 -7283 0
9397 7910 845 -640 -3875 -5956 8304 7254 2870 9369 -4657 8859 -6833 3534 -7631 0
4816 8455 -3042 4997 4521 -8298 9398 659 6654 -2171 2425 9108 4121 3410 1023 0
-5926 -9635 9007 2176 2887 -7145 -1159 -8643 5979 6287 -4251 -1417 200 -5432 6281 0
-6201 6057 -1077 -7392 4685 -7456 712 1416 -7143 -5235 -9143 -3297 269 1673 4028 0
8015 -8706 -3972 5956 688 3672 -6293 3977 -7152 1660 -1145 5957 8434 -1625 2842 0
2216 -3375 -7123 7736 -9588 -3414 7974 1104 8880 -1999 -6959 938 8432 1839 -7435 0
4370 6555 8332 6641 5420 -8934 2331 -122 -4197 -6692 9483 -1887 9671 -8740 7665 0
1949 -2371 2026 -6719 6476 -3738 -1725 -1580 4211 -5248 8739 -4467 4961 9033 -2296 0
5248 4792 8128 746 6046 -4732 9879 7775 1255 1753 9731 -7114 -8329 -5007 6151 0
2568 -6240 -5748 7590 3189 -6748 -5704 1505 -5099 -2720 -1816 9168 -9919 2661 5085 0
4133 2892 -6437 -3847 9961 -9580 1376 -2790 1549 2162 -8511 -2730 8560 2217 550 0
6260 -507 -1350 -2099 2528 -5501 -8863 -1335 -6840 -6219 -915 4653 3378 -5821 -9827 0
-2218 5400 2722 -1642 3131 7084 -6469 7939 -2673 -4644 -5097 4781 9572 8426 2026 0
-428 7746 4224 1605 9169 -3402 2919 3031 -8486 -9104 -9426 -2174 5344 -9564 -5864 0
-2978 -5285 -5056 -1614 -6457 3876 -674 8318 5170 -4308 702 7589 -6688 1310 -8507 0
-9735 3258 9951 -1944 6311 8915 -6127 -6829 1770 599 -4724 6558 8996 -9635 -4981 0
-4184 -3657 -6305 7433 3988 5868 -9725 4818 -6283 2568 -3548 -9874 8756 1370 -2860 0
4079 -9221 -4083 -5288 7804 -6274 -3697 7890 -6162 -9050 -5874 -8418 -9343 6161 -1820 0
-5631 6682 -9590 2913 1966 6164 -6796 -7210 5980 1728 5409 -6583 7904 -199 -6640 0
-8713 8357 9461 7606 -6650 5756 -7765 -5211 -4272 1477 7340 5888 5738 8886 4102 0
2009 -4472 2391 6675 -3122 5249 -6630 3944 -220 -8570 -2134 9777 1039 6773 4525 0
-5101 -9744 781 -758 8639 -4543 3985 5074 -6192 8831 3255 194 2993 9785 -1426 0
-7567 4859 6215 -2404 3771 -1154 9589 -8594 3422 -814 6417 -5021 -7858 5517 -1997 0
-75 -36 -5565 9995 3703 4481 -5463 -2914 6840 5227 2631 -4628 3160 -98 -9836 0
9283 4400 -3832 -2675 -6330 -3604 6787 -1472 -7495 6553 4565 126 6435 1273 -335 0
6343 -3086 -8615 9785 -9965 6622 1136 -6416 6040 -4525 -448 -1566 -8630 5066 -1256 0
-2795 8235 -7968 -6114 -4932 -99 -6442 2630 -3940 3724 -9640 8198 -6873 -6054 4236 0
2785 -8795 -5811 -4114 -2188 -8017 9323 679 2763 -8493 -5730 -9729 -5873 8748 -678 0
-2959 -4758 5836 -2543 -7648 -4565 8403 6668 6608 5916 6320 -7250 -6062 -8772 205 0
-9840 -5772 6113 8174 2536 1356 6883 -9081 3023 8575 7559 -9266 5206 -5004 2260 0
942 -1254 3799 9595 -1753 8943 -81 9858 -5329 7613 5445 2217 7703 -2196 5943 0
-5522 7495 -106 -4716 7971 9201 -7532 -9574 723 -3007 7318 -9121 9004 -3546 4590 0
-7230 2141 -927 -1385 -3284 -1061 2393 -6331 3915 -1418 -7311 6988 2872 -4756 5551 0
3640 6754 -6411 4717 -3348 5826 5245 -7562 -1022 -4716 -4049 -9465 -1686 5004 -5723 0
-2486 6868 499 -1571 -8982 -5801 -8625 4119 -8978 2608 4066 -9568 -1981 -5870 -1474 0
8061 -7934 6640 4552 -1435 8344 3646 1924 4353 -417 6224 -5571 9480 9857 -9300 0
-2497 -9281 265 -2831 4760 -6856 -1427 -6629 3889 2780 633 -238 7087 -2122 8625 0
-7513 5713 -7375 -8192 -9511 -2141 -5194 -8126 -5436 -9338 -602 -6846 -9790 -3991 -3164 0
-2086 7021 -4923 -2584 5149 9347 1906 -1586 -6983 9402 3370 -3383 -107 423 6916 0
-7068 -3176 4758 8965 6012 -8731 -5527 -7928 6633 3576 9069 4061 -8955 -8641 -9263 0
-8404 -2298 -3723 9729 1081 403 -2739 6791 -4810 -2683 2564 6898 -4431 5927 -7006 0
-1152 1800 -2590 6910 -1859 -7796 -950 -984 -6887 197 569 -2261 7169 -5131 8748 0
2954 1075 -4553 8633 1151 -3573 7668 9526 -4100 555 6909 9703 -3244 5774 5177 0
1467 -6909 -6552 9829 8433 -7484 -5661 -8990 6672 -7390 184 -7508 2029 -7271 8524 0
8755 8224 6117 -4261 9094 7911 7250 -2035 8463 8523 -573 8363 7075 -8640 -48 0
9185 4515 642 -9719 3547 3523 8634 455 -9175 -717 -4685 -5269 5158 -8471 7921 0
4720 -3728 298 -7712 -5680 4292 -8326 1731 -5699 -7123 -5246 -2553 8032 -6131 -1099 0
-9604 -9330 9724 -8490 -6474 241 -9435 -2099 -3883 -6124 -1353 -5248 -4438 3228 -855 0
9642 -3161 522 9125 2277 -6089 7568 7019 -1084 5170 164 962 2084 -6934 9147 0
-9277 4662 2505 -3247 6582 1408 -4069 9570 -3834 -8873 -1454 3375 -1036 6622 7818 0
-238 9723 -746 -2878 -2522 4918 -5710 5943 -1515 2853 -4599 -6700 5567 1846 -9488 0
908 -3344 -6271 4323 -4483 4357 -2877 -5113 9453 1964 7843 982 7706 615 8880 0
3570 -3644 9043 -6198 8509 -7709 -4105 1547 -6916 -3359 -7232 4974 6105 2770 -4252 0
7220 -233 -951 -3198 997 -8233 3083 -8251 9822 9202 9119 -7566 -4521 3426 4712 0
-5373 -5618 -2365 2325 -7069 -1754 2967 7479 4165 -8041 -158 -6260 3104 -1275 -2965 0
-2770 9482 282 365 -6280 1675 -5644 -3474 -6538 -9810 -9426 -9957 1972 8876 -3774 0
7635 6304 2486 -6077 -8516 -6531 1988 8550 -9368 7257 -9807 9249 -1551 9323 -6211 0
3813 7763 852 -1195 -4883 1366 -2062 1618 7015 1730 48 1272 -5733 -3980 -213 0
-6108 -3333 6735 -1473 9206 9735 -863 -27 -9819 -7809 -2991 -6706 -2976 2639 7867 0
4947 8757 9623 -2427 8837 2182 5410 -3625 -2178 -39 -5649 1985 6251 -846 -2405 0
7515 -9136 7872 -911 7445 -3720 -2618 1571 6584 -4698 9327 6038 -1436 1796 2035 0
7904 -4262 -2232 7225 2560 8042 2034 -6735 2835 4294 -5778 -5239 -7460 5215 3542 0
-6552 -8658 8133 -5860 6263 4654 -5873 7861 8848 -4757 2505 -9701 4823 -7646 -955 0
9383 -6848 -4903 9825 3549 -5177 3175 4 6204 4262 -8483 -3644 944 -652 6314 0
-6322 -4629 -1532 -8940 -7139 -8373 -6794 4437 8506 4193 5474 2981 -2876 -5230 2653 0
-6877 5331 160 3066 3633 9649 8559 -6154 -3482 -5706 -8158 -829 -303 1719 -982 0
-6083 -9785 2181 2821 700 9474 2790 6015 -8215 -7324 -7750 6707 -8239 -2325 7723 0
-7430 -4772 -1117 -9866 -7016 -3089 -8726 -4456 -6495 -8467 -7240 9289 -1125 261 -1590 0
7315 -2206 1039 -5929 6612 4345 -9469 3716 6424 -9290 -1431 -537 -8323 -7630 1889 0
6156 2976 -4235 -3833 5550 -6337 8721 8332 -6482 -8943 -3674 5951 1363 6212 7213 0
592 -5173 4547 -5982 4495 -8826 6414 -4330 8944 -4965 1658 -588 3201 -198 -5695 0
3395 8286 -7839 -9739 -1917 6945 4406 5596 3192 3146 -9499 -1780 5976 5299 2785 0
-8567 -2303 -6180 -967 4401 5259 -2639 5802 1837 698 2130 7700 8742 5083 -595 0
1054 7374 1035 1419 4066 5699 2022 -4668 -8945 9372 -3508 4729 8583 -3314 7592 0
6702 -7046 9937 1572 -8057 -7666 700 -5030 -2829 8033 7759 -2115 6135 -2689 8113 0
-1582 -8677 -8146 5015 2165 -3610 -9443 -9857 2625 4127 -1906 8876 -1489 -5239 -5218 0
5851 -4209 4519 -7479 -9060 3675 -9459 5046 8042 -4429 7571 8227 -9087 -1397 9105 0
7282 434 9359 -3815 -2796 -9169 -3885 -6511 -8533 8963 -3943 455 1827 -4388 897 0
5706 1383 2869 -9667 -4743 275 -4324 9278 -8445 -1071 -6169 -5406 -6620 5758 5261 0
4099 -2195 5939 -1159 -9963 -1711 -4983 1442 -9556 -823 -2317 -9836 3529 7793 9173 0
-8488 885 -9155 -8456 -590 -6015 1520 4819 5931 3262 9407 4764 8825 -3371 -2438 0
8746 -4342 -883 -6348 -2331 -3163 4160 -2020 -9821 -2775 5517 5189 -9551 -9407 3578 0
2020 3273 -3806 -3453 592 -340 1906 -8410 2600 -5788 -7622 418 1996 7670 -6031 0
-4518 -221 5457 5713 -9115 3339 -8727 8507 3788 5355 -4290 8512 -6456 7584 5192 0
-6001 -2962 -2595 452 5623 5593 -3673 8559 -9886 -3302 -1938 -8877 2528 -1961 -6949 0
8321 2016 366 -3531 -6356 8497 9261 -8950 8615 7157 -9606 -4321 1596 -1570 949 0
-4212 -3881 3340 5102 -9954 7981 -4226 2967 2805 516 -2554 -2117 455 9147 72 0
904 1086 -263 -692 -4615 -1837 -2570 -2825 -3621 -3502 3248 6330 -9161 -940 3870 0
-8265 4967 3696 -5301 -7957 3228 5787 -5488 6407 9504 3024 -2092 -6229 -872 9752 0
-3358 4175 -4239 -5134 7066 9658 -6165 -8186 -2728 -9056 -4505 -6278 -3880 -7396 6680 0
1534 1128 8657 -646 6322 -7412 553 -9912 -6573 -2627 -3573 -5068 -8690 -6905 5699 0
1082 8649 -106 -1126 3 -1815 3093 287 -981 9706 4194 -6285 -1599 7583 8522 0
9926 4351 -2988 8919 6036 -6695 -8830 -1094 -1958 -9215 3582 3587 1661 952 -3498 0
507 4174 -707 4312 -993 -6651 3734 -7506 6833 8304 -6546 6896 8665 4165 -2708 0
9521 -5951 -4054 -6893 -3406 -8014 6455 8438 -8558 3821 -3081 -3475 4373 -3430 3153 0
5582 -3953 -7113 5386 -7030 7632 2141 -442 -6004 -1124 -9468 -7133 -7371 9171 -220 0
7573 8932 -3143 2002 6946 -127 -6527 4749 -431 6070 6824 -7027 614 -1600 -5918 0
-7497 9690 3600 -1584 -5638 -566 9667 -8834 5980 5383 7511 -6743 -2643 9973 -8898 0
6048 5786 -9392 -7058 4997 -7214 6509 4563 5921 18 -4965 -7430 2014 -3985 -662 0
-2816 1244 -564 -5169 1391 -6610 6733 6391 -9181 -849 -3753 -1492 4828 -9340 9623 0
-2797 9204 -372 -6902 -8458 8492 8224 -6585 2159 1977 579 -617 -3357 5226 4985 0
850 5209 -702 -5731 4135 8586 -6720 -7391 9918 -8695 3082 -7505 -3641 8714 9818 0
-4639 -4100 2290 -541 -4420 9296 -274 -9308 1416 -1610 1868 -6113 3771 2686 3025 0
2755 2868 7458 -726 -3575 -3554 2201 -9915 -7311 -3797 6039 -739 -9268 -3722 7593 0
3899 1717 -5168 8580 2729 -2362 -603 4634 6307 3874 -4833 5202 7906 -3289 4112 0
-6273 -5478 8241 2163 -7268 -4280 7370 9125 -9375 7184 5273 -8401 4361 4417 9643 0
-6316 4464 1247 8657 -2124 5140 8492 -316 3272 -6935 6223 -5221 7079 537 -2772 0
9678 -8219 -654 7236 -9828 7397 4748 -3562 5034 7340 -326 1427 -8205 -8095 -2708 0
4049 -3709 6770 -8880 232 1835 -644 -7679 2277 -1594 -3253 -8010 -4399 -4670 671 0
-443 9546 -7058 6770 -6851 -546 4983 4409 -9328 4657 -1319 8060 821 -2574 2802 0
-3716 -8421 7143 -2491 3297 -339 1948 2278 2203 -714 -2527 7732 -9132 -8432 1576 0
-1812 -5654 -9037 -3105 1235 -2357 -480 6973 7253 1595 5986 -7322 -5712 5045 -2079 0
5547 -3472 -5117 -348 3749 -5357 -1586 1796 2420 1649 -8358 -1118 6815 -7818 7002 0
8896 5988 5646 -4833 -9227 8338 1361 -6269 6700 -6195 6221 -3745 5005 -1496 6667 0
4700 -7055 2028 -6765 -2044 -5492 -7536 -3802 9684 -517 8138 -1337 -1785 5169 6704 0
2687 1065 -7100 8720 -4713 3906 -6172 -1097 5845 -790 9489 -1263 8488 -3946 4558 0
-4709 -4470 1391 -5391 5752 -2821 7401 5100 -7404 6160 -6235 627 8474 -8402 -5220 0
3528 -1501 -5192 -8967 -1176 -6770 5152 -761 -5856 6187 4103 9234 9771 -5943 -9290 0
-988 3542 7272 4861 4619 7169 -2683 749 -6727 -9542 1844 -1533 9609 -8825 428 0
5927 2940 8236 -8783 -8216 9242 -4516 6553 -9077 -9566 -1177 -7729 9191 -1075 8835 0
-2085 8653 4199 7528 -8425 630 -8871 3049 -8934 -3057 -8287 -2071 -9161 -2773 7895 0
-8349 4823 -2658 -3530 2610 -8398 6551 -7239 1354 -9357 9487 -4671 583 8172 -4226 0
-5189 -6619 -3145 1610 -6205 3506 8624 -8999 -8815 9825 -2624 6462 4614 9913 -847 0
1562 -5557 4024 -4961 5757 -1635 536 8209 -300 -2930 1968 270 5656 4861 9069 0
-3860 5582 793 -4793 -9863 -8628 -9644 -5738 8625 6411 5972 6488 -8862 -6810 9203 0
-9467 -9818 5620 -1579 9125 -2393 -1988 3407 4262 -1505 -7076 -8246 -5284 -8897 9112 0
5298 -4523 7955 9237 -6692 2996 6826 -8615 -4274 -5058 -9955 -473 3930 5754 5536 0
2611 783 3940 -918 -2280 -6740 -6242 7341 -9429 5090 -7412 -3688 -948 4720 -393 0
6464 -6628 1893 3701 -5091 -9937 -4377 -1138 758 8798 3849 7706 -2703 194 -531 0
1347 7115 -9790 -7032 -3770 3532 -4311 -9 -3873 3296 4889 -1464 3203 -2286 6724 0
3806 -5241 -5494 3326 -4528 792 -380 9653 -9513 -5843 -7178 -440 1013 -4835 -5801 0
-1045 -172 5049 -2619 6959 -8245 -2480 -5139 -5558 -8934 -7903 -7994 2289 5801 8897 0
507 -6039 -8801 3434 -3770 185 6507 -6490 -2412 -8720 -1578 9091 3304 620 4351 0
-8661 1728 7521 -2011 -6784 9750 -7306 2382 -8074 2751 -8870 4517 -2842 1344 6786 0
-9349 -1120 3085 7937 4554 1301 -7366 -5886 7406 -9803 6020 6203 -4119 7024 -5226 0
1641 2131 4721 -1907 -7400 -7112 5791 2390 -9216 -4821 6123 -4282 -9374 -5587 -1892 0
-7290 -3399 -6148 -9050 -6331 -833 -2174 1391 -1596 -5348 1696 702 5447 -645 951 0
-7526 -5374 8096 7958 -4397 7712 -941 -858 -8392 992 -2595 -3271 -5549 -5564 6249 0
2744 5222 -4748 7598 536 3692 -218 -8301 9335 -9706 -2133 -4249 8784 4736 -7549 0
-5475 4597 -8344 -1768 -7283 1080 -5446 -4960 9960 -2255 6945 -980 -7997 6900 9104 0
-2215 229 -3872 1050 1666 93 4889 -6200 -3064 588 3763 -1805 2630 -4746 6118 0
-3155 6894 3967 -747 3406 -4165 -8970 3763 8505 4292 -6711 3572 -2351 -4539 -3710 0
412 9701 5803 -4124 6159 2240 -2501 -5671 9084 -9844 512 2916 -5859 -3063 -6703 0
4872 4760 2939 617 -5839 -7142 8934 1628 -8843 710 8526 -2791 727 2678 -3568 0
-876 -2562 8324 9607 -402 -9188 7378 -8991 -5943 -8837 2737 1580 -7021 -3563 8200 0
818 -789 -6621 6203 361 -388 -529 5245 -8226 8307 2888 5132 -1324 828 4217 0
-523 -2483 7833 -4969 -1986 1311 6269 8472 9939 -1558 -2532 877 -5756 5215 2034 0
-7374 6494 9487 2774 182 7054 -6940 -9868 7281 5059 3347 -5667 8571 8776 -1435 0
-6308 -3897 -6350 7769 -6174 -4616 -6865 -8351 1779 6896 -2012 -1343 422 -9302 -2536 0
-2044 -2686 -6551 -2511 -8131 7562 5757 -1372 -1690 -6489 5136 8561 1653 -4593 1153 0
1888 -4495 9452 5669 1780 1281 9813 5449 1215 8891 -9312 -7550 4783 -6601 -7643 0
-6514 4634 866 -2920 -3243 -4996 1576 -4514 9763 4192 -7528 7236 -9281 4974 8967 0
-4288 6448 -5207 2903 9654 -9491 -9581 -2865 7050 -48 -305 -9792 5011 8342 6850 0
-2168 1969 -464 -2185 -5907 10000 -3818 -1258 5208 9881 -9241 2353 218 -3840 -5059 0
-309 -4205 1489 7749 8175 -28 6936 8760 3501 5599 -2215 -6376 8780 4482 3230 0
9314 740 -8759 4463 -2012 7063 7383 -2745 3214 9467 -1936 -7869 -4744 -5291 4631 0
6559 2535 4931 2585 -8509 407 -8068 -6381 -8354 9336 -3897 -5100 -2802 6642 4039 0
-1139 1210 -951 8983 519 -301 8898 -7326 -2314 -1746 -2210 -6412 6991 -9256 -1906 0
5979 -2986 -135 6 1903 -4813 -3219 -9296 4820 4464 -1326 7198 3582 -3573 4629 0
-397 5921 2776 4832 475 4912 5995 -5310 1513 -1005 2116 -3232 887 5141 -9905 0
2615 7084 6689 9315 8875 -4403 -9601 3437 -8920 -1024 4049 8777 4212 646 6094 0
-9886 8592 2828 -8158 2832 8189 -6453 1512 9239 9841 -7726 2168 940 8334 -1746 0
5350 558 -8715 7241 -2775 -383 -6859 2309 4226 -2958 -2693 2472 7148 3234 6879 0
375 9313 -1345 3701 7964 373 2276 -9365 -8280 -6979 -3623 -8572 2617 5257 2722 0
-2734 3360 3027 752 -7021 -8513 9707 4409 -736 -5432 -4352 -9895 7711 8403 -7095 0
1579 -1139 -8410 8947 9123 -2818 8810 6102 333 -1430 -7758 2234 -4153 -9130 -7017 0
-5452 6881 4415 -4274 344 6670 7623 -487 -2393 -8129 6103 -7657 2361 7222 4741 0
521 3264 1692 -6364 -4375 1996 -1924 -1701 -9639 -6800 425 9226 -1975 -8038 3478 0
7736 -7246 6935 6130 7606 8462 -4505 4094 5113 7701 -6241 8785 9275 61 -1619 0
-1721 -4219 -9601 6105 -8612 -4688 -630 -3242 900 -4849 9349 -206 -7555 6089 -3211 0
9326 -6212 3102 -1457 -516 7078 -1369 -633 4685 559 -5177 -379 6071 5236 5247 0
-931 -4990 -6113 -7747 -5461 -7161 3438 1445 1807 3434 1272 3462 -6572 8082 -297 0
-5569 8606 4323 991 1797 -6721 3125 6494 1271 1819 1355 1587 -5998 2755 5650 0
4331 -5864 4679 3985 2757 6706 -465 -7698 6192 -9251 -7379 -3612 -9016 -8463 5452 0
-8827 -3322 -4721 -5653 2341 9575 -6888 -8656 9663 5926 -2277 -5328 2477 -3737 -2137 0
-5639 -5749 6488 2217 -9928 -9147 6723 9753 7734 -9814 6 8346 -744 4888 9329 0
-7211 5183 523 9095 4955 3506 9620 6410 5502 -5565 -6344 2245 -814 6231 -1133 0
-4565 -2928 482 -272 -4271 -2618 -4488 -7812 7340 -8401 -169 1407 9010 1731 7209 0
-6214 9481 8133 -2723 -5406 4773 -5146 -9125 -6953 -4954 -8857 -5072 -5469 -1482 5601 0
-7993 -2756 -6241 -8373 6556 -2175 6285 -3469 2955 6380 1095 7528 8135 9622 -9806 0
-5911 -2234 8953 -133 -6498 5201 3303 -8280 3846 9515 3193 -894 9858 825 -1641 0
8932 3315 -9253 9116 7579 8845 -1255 2730 -9049 4339 -7360 -2638 -6474 207 9632 0
-2095 -5947 9718 -1961 -8637 4609 9256 6526 8684 -102 -3278 -6187 -342 -6794 9872 0
-6592 -5876 4650 5211 -6571 5638 8223 -9248 6339 -7588 9984 -8374 -9661 -4986 7524 0
-2502 -8924 -5248 -4872 -1383 3347 637 -9496 -1084 -5043 -7927 -7511 2572 7217 7085 0
9277 3572 -9597 9181 9204 -3016 4487 -4420 -8339 2373 -3627 -7265 4428 7918 237 0
-3139 -3291 8045 1901 9479 -3820 -5152 6849 6133 2604 -5265 7450 -5078 1734 4856 0
1128 7021 -1887 1041 -1503 3679 2745 -3410 -2309 -8956 -884 -9598 -2450 7137 55 0
7076 -381 1383 942 4180 -8971 8391 -8678 -8697 -198 -6378 9451 8424 133 -1242 0
-3801 6861 3137 4780 -1697 -8412 9456 -1732 5788 -3470 -5026 1753 -8269 -9823 529 0
-7251 -7368 -2068 -8251 -4437 -7857 -7 -4811 -1017 -6865 442 -6843 4265 4468 -6493 0
4296 -1344 5283 4715 -2486 -4772 -7622 4079 3336 -9252 -439 2912 -3955 -4290 -2507 0
-9696 8030 -1305 -2596 -1771 -1858 568 -5039 -3442 -8714 -2340 2407 3999 -3368 2578 0
2886 -9399 5033 2578 6574 837 1462 775 8843 -8925 -9853 3642 7097 -776 -5841 0
-603 -3593 5209 7218 5287 -1499 -492 -3647 2995 -8917 -2182 7735 3497 -6509 6759 0
2350 -3084 8657 7560 5962 -7993 -9362 9887 -6523 7436 7689 -7460 8447 -4306 -3231 0
6437 -9533 1891 -6602 -1609 6625 5096 774 4343 2180 4282 -484 3446 -7849 -1624 0
9410 -2386 349 -565 -3264 -1652 -921 -834 66 -6542 6732 -3747 5866 -4172 -9007 0
8815 -8322 -1516 8132 -5228 -5699 1515 822 3795 4792 9031 3121 7328 -4164 -2780 0
5751 -6407 9224 2178 439 5026 -4176 6347 1574 2319 4236 -8652 -4819 8779 2553 0
5506 -1774 -9031 4018 7529 9830 -1280 8680 -8468 6022 -1600 -159 4582 -9333 2471 0
5343 -2270 -7274 5926 6280 9435 -6194 -8474 -3225 8492 538 7606 739 468 -9344 0
-6937 6025 -591 -3363 -2261 -615 -3089 6581 9441 -652 5981 -2339 2303 -8199 -3468 0
-8866 -9295 7199 -1652 -9484 -5241 8104 -4774 436 7912 -2853 3141 -8694 -7265 -5612 0
4847 6982 -4245 -7746 9495 -5956 -9768 -4593 6110 -6816 -6311 1971 -3328 5591 6389 0
6689 3227 -5112 2316 -6936 9868 4453 629 -3367 -6917 -6982 -7239 -9626 8531 -5382 0
-2532 -6384 1625 7168 -3432 -770 -3102 3022 -9262 2502 -2478 6592 6947 -3557 227 0
7580 3367 -1146 8080 8200 8022 -835 3055 -5330 -1160 7677 -7244 5826 -9998 9204 0
-4911 -9415 -7543 -6442 2950 -3133 2706 4367 3794 -5972 -2397 -9083 6665 -2358 -716 0
-4013 -5482 -2981 7091 6949 -5999 -4715 495 -4406 -70 -9873 -5920 8079 -4992 4879 0
-5182 -8884 9010 -5328 -287 -6857 -9656 -8358 -1710 -5380 9503 -6454 -2519 9718 -8049 0
-6374 9144 -1902 -4091 5837 -9899 9227 4492 1157 8687 -5591 5823 -7528 -7111 -3763 0
-8729 8174 -9985 4956 9846 3631 5942 -5203 -8796 9335 6450 -8057 4043 5059 -5771 0
1759 255 -6963 4106 2292 8807 9196 7940 6638 -4216 -6998 4615 6720 -7438 5022 0
-7020 465 -5127 -6107 5746 -1079 4647 9136 -8762 -5856 122 -3304 8690 -9230 4998 0
1561 9307 6985 7611 9893 2474 2549 -3061 -3962 7348 3361 404 -8027 -578 -7341 0
-4372 2207 9227 9535 42 450 7033 8884 491 -2011 9545 302 -4928 8991 2193 0
-7066 -8778 -9761 1601 -2026 -1484 8997 3184 -7485 1561 6437 -5039 9276 -9409 -4795 0
7012 3799 7651 -1916 1557 -6090 5622 8733 8232 -1365 -5121 -8617 -299 -3250 -3899 0
3929 6329 8381 8163 6927 -9673 -6476 -8888 4907 -831 5023 -925 -424 -4109 8725 0
-757 5588 6749 -4795 11 3270 -9611 9560 -4419 -7169 6350 8253 -9430 997 2202 0
2570 -8799 -1262 -2435 6881 1235 -9349 2320 -4261 -5234 -176 808 -5668 3266 -3551 0
-1526 7577 -6670 5473 4087 8798 1913 -9262 -5513 4279 3877 -9271 2532 5898 -69 0
9906 -9331 452 -4380 -6402 1545 -2010 -6818 8923 4240 5016 -1719 4344 8566 8723 0
7720 4885 -7794 5390 -9906 -4863 -4522 5692 2546 -3796 4066 117 7154 2317 6544 0
854 -1620 7333 -8542 -3286 -8421 -3955 -3263 -7101 -7629 -6914 1707 -1020 -8515 2293 0
5585 -9226 -316 181 -1210 8228 -1375 -9375 8449 -4375 -678 1045 -8195 -4256 -6767 0
3660 -3572 -3065 -2836 -5874 438 6620 3071 1507 -1442 9442 8073 7836 -7215 7487 0
-9878 -9503 4338 -5979 1645 68 8920 7520 9045 9373 1780 9566 -1225 -3154 -9704 0
-4268 1387 -9849 7170 -359 8620 -8050 -7565 -8534 8765 7515 -678 1291 -1434 -4156 0
-1572 -6753 -1491 6453 -8401 -3605 -6693 -5914 3633 -639 5555 7176 3686 -9245 -7999 0
9933 -6865 5403 780 -4842 3410 7075 -4240 1753 8521 -1803 3837 2322 -2311 -6493 0
-2900 -4732 8740 -6207 -6992 -8134 32 2852 -7433 -3089 4583 9785 -4779 -2795 -6575 0
6426 -7662 -2723 -1596 -9443 -3303 4826 -7454 -8618 7768 4981 -1647 -3205 8923 -5562 0
-9602 8609 -4464 5063 -2575 -9334 -6566 -7719 -1779 -2722 5703 -892 -3228 -5668 -9999 0
-2805 1326 8609 -9248 4642 -8058 4843 -498 -6381 1329 -5679 3837 -8922 -2723 -1845 0
-6633 3091 -5134 -8300 -9823 -4970 3913 -4678 -1118 6981 3466 1011 4040 -6856 -8280 0
760 9907 5967 -3731 -8856 9850 -3633 -4903 2742 -3494 -7398 -4292 -1365 -3436 -856 0
-8385 -4860 -716 2466 6986 8372 -4962 4641 5247 6290 1579 8006 1646 -315 -7881 0
4292 -7237 -7514 -5586 -9670 7099 -2025 -9649 8054 -7140 7591 9500 -8034 9030 8874 0
3499 -8382 -5359 -4831 9272 5530 8910 -5171 6412 2292 -1747 9399 -438 5404 -593 0
-6467 -4392 -8751 -7390 1656 -4402 -7150 -7720 8939 7696 8159 5530 1822 -2150 9516 0
2279 2695 -3068 9374 -2506 -4372 -2945 -1248 4310 -225 -4912 -3785 -5333 -1383 8965 0
3463 -7769 -1762 -9644 1508 -527 -2293 -2445 -7308 8557 -6823 -3609 -7457 -948 2446 0
5344 9933 8772 -9004 2548 -8268 4111 -4650 9075 -7416 -7537 6253 -1675 9005 -8576 0
-2521 7954 5260 -9377 -6983 7410 8982 1032 6224 4316 -8269 -8052 6682 -3829 1633 0
3266 -5868 8600 -3512 4515 -6794 7263 -1381 1385 2318 -7192 6854 -1585 7507 -6449 0
-3002 8978 -6350 6024 -9912 490 -8970 -9998 -9463 4234 2953 7059 2799 7215 7643 0
-442 -2720 1498 -6448 -926 -1699 8123 -4748 -6814 7311 9063 -1689 531 6624 -2791 0
4436 4668 -4008 554 -8943 5079 -3325 2975 6314 -1132 6872 -8040 -4055 -180 -4933 0
-6870 -6671 8154 1600 -9154 2428 8070 4218 4524 4455 -1576 2251 -8281 -8467 -4046 0
6828 2044 -4375 -3804 9522 5365 -723 4201 -805 -5759 -6243 -2239 -793 8735 8803 0
-6667 -1698 -9635 -1486 8995 -6376 7400 -2517 8179 -3395 237 2326 8492 -538 -5636 0
-4014 -9715 -4252 -2515 8229 9714 4111 -7792 -2399 8576 -8519 1861 -9160 1841 3067 0
-4342 -1250 4642 9239 5064 -570 5313 6508 -798 -6878 -2743 -2370 -6541 -6242 2818 0
-4026 -9613 -3076 -8883 -2843 -4 -5386 -9391 3177 8082 -1128 689 2304 9399 7751 0
8529 -9426 -3727 -1837 -8173 -3815 6980 2976 -955 -3316 451 -7166 -3913 947 6516 0
35 8250 -8704 4500 3854 5955 -8972 440 -5002 -6968 -3570 -4426 543 4199 -1423 0
-4271 -7889 9939 559 -1621 -8432 -3451 -2367 -821 -7004 -681 -7515 2598 -6146 6141 0
7220 3206 2627 3483 -7697 -3406 -3789 6084 -4126 -1558 7417 -3792 -5962 1470 -347 0
-3022 6753 -3985 -6983 9278 -9083 -6572 2809 4815 8096 -3537 4677 2968 -4048 -483 0
-2894 -1951 4563 -6329 -3002 -2493 -1785 8310 3247 -2574 -5727 -9208 -6474 -814 -5509 0
3696 -3599 -6933 3144 2032 -6316 -9614 -9268 3983 -7721 7476 1171 6398 8018 -883 0
-855 3629 -2870 1427 -5658 -9979 -234 3940 2670 2140 53 4811 8466 737 1010 0
4878 8672 -1817 -3613 8655 7860 -5909 6758 3515 -6288 2837 -6110 -7265 -4211 -6302 0
151 3661 3040 -1063 -7515 -9882 2688 -1402 6697 -5550 6863 -7635 -4507 9678 9000 0
3859 2151 7315 9639 -7683 9876 5462 -6866 4356 999 2584 -111 9810 6187 3453 0
6819 7529 -6718 -6994 -8402 -7013 2016 -9160 4323 608 8274 8020 7962 -385 6519 0
-2340 -4337 9118 -4713 -7067 4260 1645 -5377 -3192 -5193 2757 3277 -361 -9180 9967 0
-8552 9972 4881 -8339 -4533 9799 7932 5396 -9623 6827 -1540 6520 4797 8712 7961 0
-8232 -1898 -2673 9015 -6845 3255 -6134 4256 -2352 -8660 -8846 674 -7388 1547 -3844 0
-5585 -4143 -8757 -3875 2744 -3099 -6615 -2879 -3429 7840 2593 -4508 2732 1757 2055 0
2190 -6825 -6738 7105 8515 -885 9111 -6025 -2531 -1814 -8361 -5574 5975 4955 -7401 0
2346 4825 8707 -6573 -806 -4296 -1782 1153 -4578 2824 5735 2109 -1976 -1397 -1099 0
2505 7452 1913 3585 7434 4476 6763 4178 -6512 -2448 -9652 -4136 8970 -815 -2468 0
2520 -6757 -6486 3340 -233 18 4513 8939 -6178 9438 6088 -8084 -7490 -5393 161 0
8145 -5214 -5221 8220 -1267 3309 916 7455 -4652 264 -7958 -5412 7478 8548 2927 0
8906 -8217 -5046 4769 -3536 7783 8714 2090 -2584 6393 -4376 -8177 4919 4759 -6029 0
-7513 12 405 -5495 2531 9004 8680 9837 -1240 2841 -8848 -8626 7200 -9449 -7208 0
1277 3663 -9648 -2328 1068 -8113 8187 -9831 1047 6597 -6077 2148 6308 2294 -4797 0
-8104 3328 4358 3152 8813 2191 -8685 7957 -6455 9099 9595 6063 6019 4248 -6374 0
4785 -4672 6702 -963 2751 -8312 918 3319 2203 5242 132 -6833 -8799 4307 8991 0
7990 -9197 -5038 3269 -4424 -4903 9875 2672 -5748 6177 -3577 7558 118 -4492 8880 0
-9417 883 2726 -7831 1166 1563 3676 -3189 2993 4591 415 2152 7466 9188 3630 0
5567 4926 7614 1377 -7078 -2995 7472 607 -4968 386 3205 2699 -6479 8240 13 0
962 -5971 -1620 -8523 -4505 -8194 4369 5627 2173 821 4991 -6133 2161 7317 2443 0
4459 6887 -5183 3016 -9157 -3673 4764 -4612 -9870 -1448 -9483 5784 6366 6092 8812 0
1768 -7571 4744 -845 -3225 4849 -1762 1585 -4770 -9573 420 -8354 3430 -2058 8633 0
3158 4496 5281 -3606 -1217 -5447 -8616 9332 -128 -3833 5648 1903 7555 6465 -6538 0
-9451 661 3109 6929 -5529 6453 -1963 6031 9733 5407 -459 -4633 -8176 -4030 539 0
153 1121 -8902 3225 877 -7194 -9423 2339 -8798 5969 -9129 7661 -4914 4638 -3936 0
9401 1437 -1091 -7400 -1872 -7130 -9552 4146 -4340 6220 -3641 1981 1575 -219 366 0
2524 -7571 8347 -4434 -9674 -2453 7674 -7235 9721 4010 5247 -7644 -4485 1970 -4427 0
-206 5770 -1311 7139 1132 -2733 -6782 6591 9111 -1732 -7335 -8669 -8657 1637 8118 0
8993 -6447 1961 -5874 9414 -8724 -1563 4382 -9296 7081 -9237 -9038 -6388 5506 4004 0
8806 -1424 -4413 -73 4235 9411 8459 -318 -7644 -9328 3561 2786 -2260 2746 421 0
8640 1133 1479 -932 -1932 9846 -340 -3583 1463 1298 6718 -4742 4218 4124 -3319 0
4154 -8883 -3138 -6327 -7695 -6228 3638 9853 -8006 -9715 9244 -1507 -6866 -8991 7532 0
1650 7566 3833 -566 6160 6265 1279 3590 -6494 -6844 9714 -7926 7419 333 -850 0
-582 -1947 -3753 -917 4221 6334 -3122 4948 -2959 4952 -3365 1262 7038 -6903 6942 0
2574 9326 8438 8952 4413 9391 5315 9405 -9150 2023 1960 -1380 -7570 7923 5963 0
-6799 1126 -9213 4710 -4464 -5927 3580 -1781 7189 -4320 6086 2892 -4325 6977 -2902 0
1653 8702 -2383 8591 -6445 1527 -2165 680 -6243 7804 -7158 -4081 -9837 -2953 -8665 0
-3022 3089 4606 -596 7926 9349 -5182 -1554 -4426 1626 -5188 1059 1913 1131 4846 0
5884 -7726 6735 -4703 -3981 -9703 -9943 8130 7714 -4359 -35 -9818 3122 -353 -1973 0
-2142 -4266 -8709 667 -4738 -7244 -8106 -6302 -3182 -1121 -7908 -6432 2920 -7955 -752 0
-6100 310 -7057 3742 -4767 -7736 -6142 -2948 -2337 9820 -272 9244 4048 6197 2 0
-4751 9363 -660 -6158 8267 9768 7277 8733 9770 4718 9610 -8820 -8438 -411 -1170 0
-8874 -5582 -9019 2163 -6489 -7409 7301 1586 -2041 6639 288 9848 -284 -3712 3513 0
-2986 2091 -7769 -566 -7019 -4356 -226 -6714 -5942 1888 -8099 5199 9648 -8692 644 0
7855 -5332 -5735 299 7430 372 -6609 8631 -1318 6336 2983 -2890 7970 5183 -4946 0
-2370 2355 -5063 -2133 -8647 9835 -5597 -3418 7516 -6461 -624 3319 9261 289 4851 0
-977 2099 5810 -1170 -4251 7819 7032 -1164 -1104 3817 -3962 -2140 -9990 5002 2361 0
-6945 -6152 1870 88 -6181 2139 -5527 8925 -7595 6111 -6373 -304 -5381 7263 5714 0
7649 -5544 -3471 -8243 -8151 4371 7063 6785 -6828 -3718 -7474 1321 1705 342 -1932 0
9074 -4310 -3666 -7838 2313 3173 4344 1445 8765 3891 -40 8300 3590 -18 -4126 0
-2498 9830 3033 -5657 -4395 -2503 5597 8721 -1940 1226 5484 705 2852 8137 9465 0
-1839 -3364 -6969 1968 168 -1877 -3767 3786 8850 7196 -9672 -7161 1075 -2109 2146 0
4178 -3342 -2448 -4643 -9485 2892 -8788 5452 -3467 1006 -3825 -3458 7819 -680 3890 0
-7240 1112 -868 2874 379 -7696 -295 -8546 7201 3620 -9983 9701 -6674 -3803 4655 0
3026 9726 2927 -2813 -8867 -7294 -6865 -4118 -7270 -4615 1995 -1250 -4592 -5489 545 0
986 -6551 -3728 -2836 -1374 5685 -9913 -2227 -4260 -3825 -8067 3977 -5103 -9037 312 0
-8580 -1438 -3631 5884 817 605 3334 -9322 8861 2752 505 9413 -203 -1921 1094 0
-2515 7395 -3525 -3035 -6473 3753 3788 7668 -9573 -9405 6162 4408 -7028 7851 1551 0
7210 -2317 847 4533 4833 -164 -849 -3550 -1386 -3702 9313 6558 -2070 2289 -1866 0
4230 -448 -376 -9117 9323 -8634 -8049 8946 5971 -2563 5761 3400 -4684 -3074 6464 0
-3093 -9533 3056 7746 -5947 -9591 -2512 -9041 9738 5537 -4672 -9769 8884 2273 -2848 0
8813 8544 7176 9079 3991 -4009 2585 -7299 -3974 4862 -230 -2890 -2776 -3682 -7832 0
3351 9529 -3878 -2263 6391 3773 3232 -609 -3936 5961 9015 -4174 7677 -704 -4498 0
3538 -3765 -9498 -1718 -7423 -9952 -2072 -5549 -1074 9794 5080 -642 -6412 5190 -2976 0
570 7897 -2557 -9247 9272 -1280 9766 -8213 -5583 7089 -5984 9193 1299 -9905 -4931 0
9367 4097 -9375 -8361 -2736 -3642 3589 1822 -1954 1911 -9240 -7876 -4715 -6652 1119 0
9346 8592 8236 -890 2070 635 -5723 -7138 2840 2570 -3146 3765 8509 662 4926 0
-3555 718 -3054 4141 -768 9788 -6927 6187 -9888 -7845 2967 8314 -3619 -2931 3347 0
-3651 9663 8106 -9238 8374 -2251 821 -7189 8594 5342 4682 2556 -1215 -4135 -6720 0
1858 4758 -5324 -5159 602 -9371 -1816 -3022 -2316 -7153 1709 8785 6921 -5167 -7487 0
-3052 -6901 3104 9394 3110 -5514 3850 5352 8421 -8675 -6293 -5277 7678 -8206 7055 0
-8867 -559 -1636 7133 -6877 7580 -2078 3266 -2951 -7895 76 8179 -1836 3781 4479 0
8417 -9897 -2024 -1028 -716 5963 -6753 5327 -4442 -8158 8157 7054 886 -9570 2155 0
3948 450 6973 -6882 -3070 8203 2187 8838 -2762 -190 -3253 -8910 -7731 -3443 3925 0
2013 8669 7275 -9935 -7659 189 9456 9781 6092 -6712 2433 6334 6756 5742 -6949 0
5059 1000 101 3044 7134 -1585 6833 -570 2014 1956 8430 8408 8058 -8018 -4302 0
7009 1962 -8061 -176 -8786 5014 2169 -3169 -2819 7913 -4545 4811 3671 -5570 1817 0
3865 9956 2798 -3899 9832 -7344 -8057 -2319 4307 5503 -4832 8007 8067 4029 6971 0
5012 4115 4488 -4337 6129 -5447 3347 4406 6648 -3929 230 -8218 5406 -5427 1363 0
3334 9487 -6448 -9692 2257 412 -9537 -3400 -5877 -5122 1901 5612 -3605 6165 6359 0
6461 5444 -5744 265 -4186 -6404 347 5255 9931 -1520 -409 -7793 -3876 -2524 -6656 0
-2191 -1296 9207 1215 -2172 -9468 9762 7613 8506 -8532 7756 -9898 7787 9720 -4758 0
2410 4587 6026 1325 -4965 -4501 -458 9043 4940 3564 -1347 -6915 -9230 -4211 5391 0
5435 -5112 7153 4301 7847 9399 -6901 9971 4887 8803 4150 -9720 -4365 -5043 -9714 0
3168 -8895 -8604 -9580 -7318 -8244 8990 -9219 -8726 4850 9343 -1686 -5103 7322 -9593 0
5806 5993 -1257 2984 4976 2046 -6053 -8302 9769 -5664 3898 1504 2840 4023 5199 0
-7023 377 5156 -5253 4625 -9612 8275 5204 3008 1161 -3086 -7819 -5215 -5334 -9445 0
794 -6712 847 6729 -1680 -714 -8564 3197 -618 4271 -4824 -3998 -7913 491 4989 0
9979 7360 3628 -3227 3054 5507 -2653 455 7486 -6984 2366 199 9878 -1851 6711 0
7410 -300 -2969 -2346 -9735 -7600 -9558 -3673 2498 -944 -1838 -1014 -1067 -1019 8420 0
4956 -6369 -3343 -8339 5952 -2687 -7457 -44 8652 -1604 575 -4122 8164 -6309 -4977 0
9164 3808 8090 -6777 2365 3468 3691 -713 752 4120 -1135 9799 8362 -2863 9357 0
-8002 -717 -4300 8932 -6211 8273 -7772 -5390 6604 -1079 -7795 -9537 2982 -5490 -4054 0
-558 -7036 8562 2854 -6762 -9444 9981 -283 -1562 9882 -1596 8113 5647 -1293 4299 0
-8569 -6587 1521 -4906 -7580 -841 7150 -2267 -9993 -7039 -8857 3681 -8684 -4984 -7206 0
5940 -595 4126 -1321 784 -1054 3758 4072 9027 7976 -4388 -3426 -7149 -3227 -1879 0
-6524 -8264 4971 2109 -7345 -2085 -3310 1794 5877 -5756 7872 847 -7855 7565 2053 0
5992 -6025 1728 512 -3301 6777 -4596 1085 3842 5467 -9883 -2780 1237 -1601 661 0
-1016 -8914 7400 -438 -3629 -7796 2496 -1365 -5200 -3001 9248 8917 -3532 -1932 -1910 0
7898 -6372 -8579 -1187 4203 7532 2428 -6157 -9707 -6302 -1248 5661 3855 8396 3456 0
3952 9871 3547 7910 9196 2980 -4078 -3442 4527 5203 9842 1045 -8100 -6346 1394 0
6121 6542 9339 -6080 99 -1494 -3427 2735 -4026 2585 9002 2501 5005 -2622 4777 0
-3387 -3605 -2594 5600 -1232 7367 9565 1111 -5557 -9249 4261 9578 -7505 -2331 1856 0
9022 -9200 -9601 -5315 9531 -2477 4340 3561 -5475 -8179 6303 3922 3186 299 5893 0
-8883 5111 -2117 5217 9609 9240 -5309 1863 8835 6085 720 6424 6947 3269 -7044 0
-824 8082 5793 4792 5685 -8718 -5209 -7622 1420 2878 3967 1499 -9170 4504 867 0
-490 -3740 -7996 -2034 -578 6477 -2096 -3606 6871 1839 5272 9053 7241 -6327 -4910 0
-4837 10 -1379 -8894 -6181 -6557 -3825 275 -7188 -2215 -2716 5011 8471 -8220 2210 0
-9866 -5275 -3958 -8122 5736 -5419 4439 -5469 -296 -7042 -6278 -1156 1164 -534 -8440 0
9770 2251 518 -6385 -8630 7925 4965 8701 2601 4542 4222 1080 -3323 -3474 2191 0
2855 -3453 -1440 9952 1779 2801 8394 8531 7286 7881 -5362 5421 7285 9972 -4442 0
5174 31 -7613 -9245 -1731 -4993 3049 -865 9381 9603 -8419 -3108 -7141 -4633 -4839 0
8118 -8324 415 2405 4525 -6998 1220 2593 -9967 -7790 3369 -7097 -6032 -1654 -3898 0
-930 7830 -1178 5973 1946 2661 -6315 9006 2007 4312 6545 -2229 2418 -2926 -6029 0
-1337 -4600 9355 -9066 902 2504 -2642 -4381 2945 7126 3504 3965 -7928 -1583 465 0
1211 -9576 9057 5506 4718 3139 7516 5213 -1468 -6787 -7309 -7481 -8879 -4862 -2618 0
-4275 9029 -1680 -9301 -4597 -6824 2424 5795 3271 -5266 7023 1171 -9230 -7364 -91 0
-8553 2181 -5225 -7728 4016 3176 -927 -2572 3939 -6980 -1223 7787 8142 -2511 6721 0
7917 -6954 -3680 2576 -7527 3751 2408 5132 9473 7164 1148 1531 -2371 3422 -8065 0
3256 3987 -5645 9605 -5026 -1672 -2706 3383 5236 -3979 -5402 2445 -265 -8534 7632 0
-4798 -8787 -2337 4042 5005 5575 -1799 2947 9082 3550 2393 -1993 -2506 -5503 -541 0
5369 5954 3562 8597 6248 9973 -1139 -401 8640 7237 4339 -2942 3187 3479 8990 0
6993 2787 2089 7318 -3137 1278 -1241 -5551 2143 9706 8235 -5268 -1848 -5438 -9896 0
-3506 191 7927 -3362 7474 4535 -6618 6101 -3932 6639 828 -2161 -262 7715 -2098 0
8561 -9725 9196 -94 -483 269 -8663 5136 9490 -5200 -6591 -6876 2562 -3762 -2975 0
8371 1584 -4338 1752 -6828 3880 -1016 7636 1990 -8689 3164 -1678 -7687 7987 -7303 0
761 845 -2611 4630 6419 2408 5257 4969 -5782 -3856 -7190 8912 -5366 -6557 -436 0
6648 -6465 1811 6803 -7080 -5873 -5431 -3310 -3732 -3146 160 -3831 -3742 9105 -2980 0
2311 -9901 8228 -3822 104 6392 -491 8529 -485 -3247 3294 2550 -2932 3695 -2474 0
-8807 378 -3315 4177 1364 -7182 9830 4749 3663 -141 -8134 15 -3232 5980 3494 0
6412 -3647 4501 -1918 5821 83 -3009 -9935 -5608 28 -6594 -5367 -9973 5953 -6415 0
296 2025 5485 -1819 1649 -5471 5790 4416 3247 -7247 -9235 7110 4392 8371 -3131 0
-3984 -877 -6469 3452 -3550 4246 -5475 -508 -4892 -7103 4910 -6403 -2374 1570 -5839 0
3884 -1567 -6877 4204 -3316 -9067 -4961 -758 -5162 -7380 -4694 -28 -1694 -9000 -4644 0
-293 8370 58 6955 -3619 9687 8617 -3951 -8139 -5109 -9321 -7618 6636 -1421 8805 0
7857 6978 8221 6 3765 -6483 -8790 -6826 -9998 4816 -8434 -351 4169 4753 9283 0
-8150 -3954 -3209 -7289 1423 -9385 -8496 4770 -5421 -5736 -2429 -6470 4219 -2166 -798 0
-516 -8682 9534 -4271 -6773 8777 -9205 -5730 -426 1014 -5651 6169 -8787 -2573 6323 0
9093 7874 8523 6059 983 -630 -5532 1468 2317 -657 -39 -1629 -8926 8660 -9663 0
450 4918 -2596 5165 -9015 7198 -7269 3631 7655 9775 363 -806 -7144 4295 4297 0
-8414 -2684 2773 3880 7830 -8477 4068 387 7456 9188 -4235 -9728 -8061 3589 393 0
-2039 -3381 5920 1942 -2818 -1168 9942 -866 3686 -582 -2162 9415 7717 4244 -4921 0
6159 -8848 -3296 -8894 -5520 369 -7164 1609 -809 -9088 -1877 -8925 -9620 728 6211 0
3674 6259 -7151 -9392 -8934 825 -9217 -4077 2341 -5091 273 -3762 -3948 -6852 8734 0
-2604 4221 2304 5741 3880 7029 -6781 8921 450 5604 2139 -849 5129 4213 -6965 0
876 8451 -5617 3456 6178 -8088 -4611 7108 2715 -6797 -9243 463 -8485 6270 -6331 0
-6688 -4131 -3272 5253 -36 2777 -9946 3021 -8032 1500 6356 9417 -9536 5882 -458 0
-3943 2641 9850 -7721 3115 424 -5622 -5657 -7990 2521 -5207 445 -9164 -4115 -8937 0
8718 -341 2706 9340 7718 -3310 7201 -558 -206 9392 -4319 -2141 9966 688 -159 0
6959 -8732 5564 -7601 6474 2510 -2801 6686 2192 2884 4169 -8753 -7403 7538 7661 0
6775 4834 -9919 5852 3783 -9433 -8595 -2805 7758 -582 4346 -5747 2510 3428 4863 0
1722 -8442 7319 -1816 -766 -3045 -7793 -1449 -2031 -3760 728 1709 9707 473 6191 0
6949 2559 -9985 -8860 -992 8437 7576 -6814 6225 9762 4409 733 -4285 3230 6752 0
3688 -3012 911 -6695 4442 2823 -8150 -169 2357 9245 -7036 -3000 -9625 6690 -4839 0
5250 -6773 -779 6187 4466 2179 -4795 -5841 -6201 -9067 9889 -2126 -9238 -5474 1285 0
-6781 3341 2771 1911 7549 5842 -5222 8793 -7348 1459 -7733 -6830 -9787 9344 -1023 0
-1005 -2111 5737 -260 8809 -8499 4275 -2255 -7629 8129 2541 3730 -2014 23 8808 0
9059 -9589 1193 -5741 -1874 9300 -7598 471 -8451 6628 -8064 1808 6223 -496 5611 0
-6807 -6668 7171 -5065 3308 -8508 -8692 6620 -2812 2492 3695 8844 -5504 -8414 -2656 0
446 -9022 -7810 -7279 -6283 -8477 -5452 -5695 -8160 338 -4791 3350 2085 -466 6186 0
5560 6576 -8538 -709 -1536 -9759 -1071 -2901 5702 7776 -9675 -3771 8177 -318 -4929 0
3290 1560 2160 5912 5512 -2510 5868 -2641 -8966 2786 6699 -7033 -4484 6956 -2119 0
-8994 8152 9778 -5371 -5756 -9766 7439 1637 6671 -1542 -3290 1021 9426 8643 3867 0
-1044 7260 5744 -7232 -6083 -6451 -8217 4799 -6156 3868 -9821 3493 -4765 -963 2857 0
3309 -4436 -3141 -8096 -4737 -5246 3210 -7486 8337 257 -4731 -4182 583 5877 -3584 0
-833 -8414 3957 3492 8787 -515 -9065 2558 7812 -2557 -5449 9018 8523 -7964 -9913 0
7697 -8183 8143 -8855 6248 -2875 6207 8550 2222 1320 9360 -2201 -7774 2927 -5541 0
815 9621 2657 3857 7046 4769 2629 -670 -5873 8308 8490 3716 153 -1343 -1270 0
-4756 -3272 -4167 -4517 3090 -8107 -7700 -6634 -8668 -9446 -4170 -9320 -2340 -8169 875 0
1112 2136 -1116 -4590 -2513 -2036 -4071 -9902 1491 5117 6816 2480 -5640 4882 1757 0
-8732 -8833 5291 2407 -9018 1384 7278 9439 -2532 7810 -3629 -6374 -8657 -7742 -608 0
9148 -5128 8123 7294 9909 8216 2577 4741 619 -1864 -450 -5098 -5968 6318 -138 0
6446 -5905 -2136 2183 -9175 4352 -802 -4807 5796 -772 4660 -4711 8926 -7880 -3026 0
-5992 -4585 -5441 8726 4556 2202 -1192 -6318 754 9635 5510 -8036 4101 2299 2577 0
-4195 3215 6356 -626 -8745 7089 7578 -2007 6315 -55 857 1786 1281 -5035 9548 0
528 -1643 -4186 -7572 2041 1920 -8679 -4380 2156 2205 9683 -9464 -7921 -3686 -6496 0
164 2229 2649 -7879 1290 563 1328 -1889 8560 5101 -3864 8487 -582 -3941 8687 0
200 2153 -3304 -7390 -7381 -6117 2808 -8501 6987 7196 6482 4573 2826 -7664 8284 0
9913 9499 1857 -5214 -7554 5544 1730 -3522 9274 3852 -8271 5798 4132 806 -5999 0
-5023 120 -9897 -6047 4696 6596 -5387 5280 -9321 -8996 243 -6921 -5983 7659 -257 0
-2090 8875 3268 -7796 -3871 -6973 -7069 -6096 2730 4781 6260 4395 4655 9552 -841 0
8524 -6680 6691 9094 3708 -5399 1140 2058 -5120 665 -2869 4570 -9530 -5015 4306 0
6056 8390 610 1674 -6541 -5493 9532 -4395 850 -8572 4491 7353 -8354 -1856 -2600 0
4091 -3853 -726 688 2490 -1655 -9939 8247 -4932 9784 -5128 -458 -4260 -3901 9902 0
6921 -2871 6877 6283 -8386 -8437 6468 9492 -7074 -9631 -2500 -227 -93 9806 -294 0
6661 5215 7458 5220 -3506 6375 -5844 6721 -7483 8706 -7710 1162 -5030 5440 3621 0
5919 -631 9071 2824 2580 -9040 -7475 3623 4902 4146 1009 2186 -6372 8606 529 0
9711 4830 -1400 -8529 4765 7459 -4910 8674 -9475 -4158 -2125 370 6446 -7750 7067 0
6472 6638 2576 4028 641 4985 -8257 4396 -3164 9966 8002 -4823 6193 -4514 5881 0
-5848 1408 6231 -8540 1190 -8972 7471 -750 -8937 -7929 9200 -5774 8490 -9972 2966 0
-4603 -8478 -1493 3873 454 4951 -5169 -8994 -8949 7249 8257 6084 -8532 1349 -3362 0
-8883 -3515 5580 6382 7446 -1229 9211 -9992 -3950 -2591 5896 7472 -4429 3642 -2223 0
6937 1858 -9619 -4607 -2232 5912 5479 1784 -4914 7453 -6048 8154 -9055 8452 5457 0
8712 -8625 7697 9916 6084 5510 8067 1102 596 3597 -3358 2150 8713 -9778 -2952 0
-4596 -8364 -2458 9435 8989 -6278 -1937 6468 -5715 -3351 -3384 -760 -6553 2870 -1498 0
-5683 -5438 2457 4078 -1860 2613 -4398 9509 711 -7514 407 6232 1276 -8370 -5768 0
-907 187 -8856 668 -7235 743 8551 -1464 -1672 9137 9026 317 -7481 2447 9635 0
3033 -5525 -122 296 -6466 -9758 305 4197 -5132 2807 4142 -9310 -5977 -6264 -6607 0
-8256 -287 6595 -5414 9628 8543 -7238 4487 474 -7459 2432 3945 4141 1359 -3291 0
-5352 2832 9958 -5491 210 -326 -2855 -771 -3334 7766 -3051 2093 7845 -5697 -2407 0
4107 4115 2511 -6150 9613 -8315 6258 -6035 8572 -4266 -3060 -6976 -6130 3341 -5533 0
3832 -8359 -3569 1320 3576 9066 -2859 1280 2299 7563 -6098 8504 -5761 531 5696 0
-7962 -1711 8006 -17 871 -6359 -9475 418 2115 -6223 -4860 7858 -974 8390 9234 0
7330 -2447 -8995 -6231 2727 672 -4383 985 6985 7425 -4785 8069 2583 -6066 1442 0
-8543 -5053 -1503 8936 5703 -1215 -3370 -7214 7095 -3877 9377 9772 -5760 6795 -9666 0
1443 1157 -701 -7960 -7914 1385 5129 -7715 5243 4572 6875 -4674 -620 -9915 8905 0
-4471 -9198 9818 -1541 -6636 -3324 3474 9459 -2706 -9045 9798 7697 -6429 9582 -894 0
-7026 -7137 -9962 74 -6870 4875 4571 3489 8003 -470 1154 -7257 3098 5466 2207 0
9655 72 -2577 4692 -2921 5821 -5060 4810 -8484 4433 4836 -2031 -2035 -5115 2058 0
77 -1631 4765 -7404 1229 -9055 5056 4421 8834 2337 5614 -4693 -8027 -8853 -2738 0
4506 -5326 -580 -4578 -3374 -2412 4391 -8928 1299 5125 5797 -3365 5219 6297 -2400 0
-4218 -2224 -3192 7118 -9507 1713 7154 4126 -792 8680 2707 -4036 6008 4584 -1287 0
-4061 -1505 -7156 -7011 3616 -4759 -8839 2325 4178 -753 -9464 7527 4235 6516 -917 0
1130 -8718 716 -454 5423 -2928 -9593 3036 8751 -472 -2229 8600 -5043 -2745 -9647 0
-5986 9262 -88 -4876 1618 -7506 9358 1533 -1752 7305 1523 6534 -472 1316 -3040 0
-3513 9488 -5303 -2395 -6626 2841 -2134 8415 7859 -1151 -6436 -9039 -8231 -453 -3636 0
-2616 -9527 -4926 -2425 2795 1844 5717 -8404 -3872 -6868 2084 -1350 -5229 9955 -6779 0
-101 -2902 -7126 6982 1415 -2202 -7030 4183 -3156 4570 -2134 -6177 -9028 -8998 3838 0
-7778 -3538 -115 7255 8377 8896 -875 3566 -18 -7895 3711 -6043 -9940 8166 9103 0
-9353 -2965 9734 -8637 825 -4832 3598 2668 3869 -6317 8635 4078 -8942 7723 -6949 0
7420 -4248 8376 6398 2966 8394 -5628 7732 -8505 -2725 -9237 -7497 3449 -8539 3197 0
-5376 -7818 4028 4632 475 -6149 -6825 2402 1578 4448 1257 4026 2826 -749 -110 0
-1762 3184 -3512 4694 4532 6321 7677 6967 -23 4808 3081 -4114 4179 -7035 2695 0
9839 -7292 -8536 3710 7302 -9624 -7329 -5349 3490 8021 7517 -6660 -9736 -6993 -7914 0
-7705 12 9039 2984 -3297 -5860 -7044 -7693 2437 -7150 9123 1522 -2421 5305 -5916 0
-3050 -1586 -4962 -4956 4234 4856 -1347 -9766 -61 3642 2017 851 2306 2828 6771 0
-8873 -1071 -3178 -7998 -8353 5936 -1289 -4561 2656 4723 -6882 8119 7475 190 2690 0
8622 -3411 3539 -696 -360 -3228 5210 1499 9493 -4560 6436 -7984 5306 236 -370 0
4116 9279 -9541 3698 2000 3114 -6035 658 -5453 -5238 5464 3585 -7759 -1548 -6672 0
3917 -4136 7311 5910 -9717 1658 -911 -6774 -5558 9945 2653 6667 -2380 -3897 -3827 0
-975 4907 -7787 162 -8761 -273 -7958 3361 6029 7985 -1550 -9860 372 -2087 1996 0
6622 -5534 -1522 7858 2227 9146 -5446 6959 469 -2730 8457 -7921 5150 6115 -4769 0
-517 -7314 -6576 -7831 -2266 7699 -1733 4225 -2601 7109 -5897 -463 2846 998 3193 0
2854 -8490 3210 7585 -8700 7671 -7666 7820 -5329 -2045 -2092 6330 9095 -3181 9218 0
-145 5079 5307 5592 8515 7988 2914 1772 -3584 -6541 -8972 -7200 -4937 3737 -991 0
4880 -4113 -8706 -5589 3329 9787 759 -6494 -591 -2439 -3993 -9003 7369 3000 -3090 0
-5016 -7725 3968 520 454 5075 -2424 -23 5504 8482 995 -6423 5719 -9686 5311 0
9053 3796 640 4070 6239 8082 -5322 -9665 7440 2279 -1049 566 -5448 -2703 -6262 0
-7111 8017 -448 -4246 -1716 -6396 6582 9916 3572 -9883 7943 606 5691 9043 -2383 0
-1417 6568 4587 -4145 -9220 -1580 4835 2546 -3363 -1441 -9916 -32 -937 6371 -6312 0
7842 -5862 1838 -1947 -6009 -3811 6248 -5286 8408 -8346 7813 5652 9544 1763 -8222 0
3085 6677 1978 3368 -589 -6107 5486 -2322 -5878 1256 2605 6037 -4318 -8387 8497 0
-9149 769 3133 271 -3007 9485 -2502 -1845 4491 -2929 -5938 4066 -3783 -2979 -2909 0
-896 -2097 -5246 6213 1537 -717 3963 -6583 -2156 -3056 302 4757 -2233 -9151 -6936 0
2677 -8609 4887 316 -5541 5729 378 8386 674 -4856 1000 2261 3817 -5620 -434 0
7405 7350 2615 8191 7522 3027 932 -2170 3277 -8591 -3558 -2805 -5959 1536 -7855 0
178 1400 9424 4258 -154 -8497 -9281 5700 5615 -1097 -8413 8267 -5906 5458 -2068 0
-592 2217 7522 -133 -5736 -1596 4479 5870 -5021 2831 -2954 -277 3762 6221 4619 0
1908 8976 1487 192 -4877 -9110 -7752 8830 8060 2657 -9821 9844 -7786 4118 -5259 0
-1508 -7745 1955 4707 -7324 -3516 -2172 434 8863 2624 4493 2482 -8678 -7635 6070 0
8275 499 -9817 4919 4745 -4896 -4681 -3994 -9871 6469 6787 5519 5431 -4686 8324 0
1991 -1951 -9486 8511 -9647 -4126 3061 1834 -9269 -1864 -311 -9133 -5661 5829 -9384 0
-2266 5145 6926 1442 -5758 4330 7835 -1722 -5598 -1500 -976 -1542 -2693 4454 -8565 0
4443 -3850 368 4807 -2101 -7875 -2109 -3723 -4062 -5097 9997 -2701 9459 -6941 -3450 0
-9113 -1716 -9685 7912 -3579 4001 1954 -7761 -3911 78 -7843 4675 5174 4573 -2133 0
6239 -5478 1489 6730 -8974 417 -9184 -8053 -2717 4937 5716 395 -1954 4997 4847 0
-4568 -5610 3060 4419 8625 -2956 2116 5810 1177 5452 -4801 -7610 4081 6823 -6871 0
7386 2235 -7834 -6753 1449 4284 5090 -348 2340 3250 -3444 -615 -5946 -7543 1168 0
-6052 -3422 -3118 -8207 4588 2222 3036 6481 4225 -4695 -4248 -5172 7017 -5336 -2769 0
4128 -4868 349 3031 6106 -2872 2849 -3323 -3759 231 -2909 6174 -790 -7534 -7023 0
-1928 3382 6919 -9992 7257 -5440 4426 -2277 -2439 -4985 -9592 9766 -3039 4210 -6562 0
-5774 -1598 229 8892 -7216 -3046 -4961 2041 8053 1171 2297 1954 -7102 -1339 -2154 0
-5128 -9741 -609 2001 5934 5403 -6212 1209 3140 -3069 -227 -4320 9512 3870 -6038 0
8434 -6228 4060 -414 1394 7413 -9848 4749 1588 -9722 -2798 5165 4992 1416 -30 0
6860 7163 2935 6773 -1822 -4877 -6702 2378 -3304 -7320 3260 -1517 -2214 -281 -2078 0
-8676 -7072 -6980 9210 -9344 -6995 4298 -6266 8367 -5507 4338 -548 5395 1355 -1153 0
-5227 6163 9983 6912 3269 6214 9737 5686 -818 -1156 6576 -5069 -1073 5548 -624 0
6514 -8146 6525 2181 7024 6708 133 7057 1274 -7664 8948 1388 -60 6356 -9502 0
86 3210 9282 7288 -9211 2367 -3396 5180 -763 -5146 -5368 8036 5414 -251 -9376 0
-8678 9515 -234 7600 6184 9439 2740 -9415 2086 1699 8945 -483 9009 -8856 -1487 0
3244 -819 -5388 125 6152 -8099 -542 -8666 -7413 334 8249 6743 -1908 -5116 -2445 0
-3455 -6857 -7512 7187 -1168 3054 -7767 8351 -5129 6384 8415 4897 -9964 2403 151 0
-3525 851 8839 -9908 -8032 -2694 3962 7561 7848 8988 5867 4489 7145 7713 -3564 0
-7764 2138 926 -4334 -9031 5196 -9040 2857 -8919 2709 -6182 8498 2306 -2577 -1998 0
6207 9128 -3635 -5786 9810 9606 8858 -2455 3036 -2410 2945 6126 -9360 -2840 2900 0
-5042 -1693 1907 -5809 -1703 -7749 -6061 3713 8907 1098 -6431 -7816 1786 7885 -1785 0
-7587 -309 2473 6264 -1969 -3070 -8800 5570 -4995 3917 -3151 -5735 5295 358 2574 0
2062 7370 -4191 4190 8003 -1123 -2 5790 8014 -8526 -4901 6401 8313 6899 1959 0
-2616 -7429 9706 6472 -4254 9720 2000 5347 -5312 3434 8549 7071 -3565 8638 2853 0
5475 -8156 -8980 495 7735 797 8170 5452 5001 -6780 -518 1659 -7734 -9561 -1284 0
-4303 -7403 6283 -7554 8604 7785 6700 2910 -7723 -6892 -4978 5775 4752 5841 -7205 0
4714 -465 -2797 1212 29 2696 -4603 -8422 4262 7700 -3177 -8725 -4659 -1449 2604 0
2926 1647 -5526 2970 -7456 -1072 -7063 3257 -6292 -6633 3168 8832 -2353 -8958 -9860 0
-4478 -9152 5522 4613 9249 -8517 -1432 -8114 3589 -4250 6127 -4629 -5764 -9601 4034 0
36 -3721 6435 -7440 -5339 -648 -439 -9446 -9651 -5871 2632 -857 9742 1996 395 0
-7651 -3396 6397 8236 -9762 -7865 -7957 1026 -3870 -2498 -6240 6028 948 -2728 -607 0
-1395 3466 4130 -5638 6491 7881 -9729 -8580 2869 -7050 -8795 -6320 -8749 255 6483 0
3459 2082 3097 -1402 8551 3952 9943 -6142 -8602 9407 3874 -7744 2856 4693 9194 0
-2402 8355 -1242 9806 6039 -9823 9981 645 -8381 -287 -5685 2864 -8604 -2846 -3282 0
1984 7528 8125 5243 1464 -6309 5275 -9162 6539 -8573 -2758 -4105 9607 7705 -7474 0
4304 -6346 289 -2951 -2142 -9888 -7078 2704 2218 5639 1290 -1030 -7505 976 -9910 0
3946 -3865 1064 9045 -990 8117 9030 -6219 2108 1955 202 5078 6845 -8815 2993 0
8112 4408 -9972 9199 -4463 -323 -5691 6255 -9968 -9434 8098 -7204 1964 3408 3556 0
-8472 -8414 -262 -488 -4914 -9026 -9524 3981 2641 9304 7455 -5457 -8541 -2678 7803 0
-3845 7512 1602 3412 -286 8875 6512 -5704 -8902 4436 1611 3433 -3647 4908 -6149 0
2798 6980 -4790 5710 1700 4750 -1896 1356 -3081 -2842 -305 -1652 3487 -3434 -7878 0
7978 7689 -141 6366 6516 6454 -9398 -2386 -9811 8894 -5416 4560 -4612 1672 7548 0
7133 496 -9742 -6932 6895 -5836 -8318 1156 7017 -4935 -182 1814 -7962 -5426 -5427 0
1280 3614 8302 -6980 3942 4536 -5151 -745 338 3284 -2782 -2601 -5108 716 4762 0
4661 9840 5165 -5179 -3439 4782 -1724 -4520 -8070 1620 9233 41 -1046 -2498 9787 0
-9210 1051 6009 5598 -3474 3239 -8614 3153 2864 -1135 6783 7069 5370 -7087 205 0
8584 1085 2045 -8071 -574 -5982 -5192 6250 7997 -3974 7698 2986 -3528 9405 -5665 0
532 9509 6113 -305 -1138 -4784 1675 9000 197 -1721 4512 -9013 -6984 -447 -5070 0
-9834 -3644 7257 8466 6012 2975 -2197 4626 -1299 8691 5403 8687 5661 -9204 4423 0
-8283 287 7566 29 1339 -9808 5317 5650 3711 -715 7382 -605 -2994 2484 -350 0
-9081 -4636 1949 -6690 5902 5090 -3348 -6728 9713 1100 307 -8315 -5571 3644 -6493 0
5642 -7853 1476 2503 -2572 262 -4201 2013 -5620 -1648 7041 -5057 6672 3354 -6110 0
-5570 -7325 -8565 4588 6269 717 9105 -2435 8189 -6740 2574 2811 -8264 -9313 -1336 0
-5894 3611 2131 -204 5165 -5824 4321 -7829 -4021 -3352 3218 -574 2791 8493 7045 0
-5269 6795 -5776 -7171 -4251 -8285 -8944 -4387 -7354 -24 -5969 -7416 2094 1076 -6843 0
3868 -6958 -7738 7645 -7845 9004 183 -2114 -657 -9579 2225 3619 -3425 9293 2628 0
9159 7136 -9524 3860 -938 -271 6737 4762 5229 2802 -518 -5324 -5450 -5523 349 0
-4084 1823 -5306 4822 -4177 5228 -3528 -5505 -3726 2379 -3919 -7929 3778 4329 4809 0
-5863 -2095 6984 5983 -9075 -5706 4875 -5503 -9771 -6350 6788 -4699 -2204 -1488 4976 0
-6513 -9160 -9586 -6590 7718 6479 -6899 -8778 -9359 1151 3338 6 -7972 1285 2679 0
8165 -7797 6625 5733 725 -116 -9003 7476 -1425 9745 -7128 -115 2160 7642 -1333 0
3671 -6188 -5017 2414 3647 -8575 3077 -1146 -5250 -200 -6286 8808 7375 9129 -9081 0
7542 -5867 -2896 -7880 1396 -6240 -8449 -9453 3525 524 -3730 8725 1755 173 -6505 0
7181 -287 2985 -1946 -4299 9722 2082 6508 7108 -1583 -2187 -534 8243 3201 4151 0
297 -3082 7270 -6442 5666 2535 3782 4463 -3215 1266 -6739 6188 3156 2525 -4412 0
-6553 5014 7571 3362 2463 3761 5180 1058 -5357 3574 2705 8426 -2952 1224 -5901 0
4381 -8243 397 3442 4390 -6049 -2962 2142 1179 -7980 -3297 -618 -3528 -9742 -8431 0
-7020 3561 -3673 -1565 8739 -903 -603 2646 4785 -900 -5033 5578 2467 9056 -6825 0
5366 6457 2569 6752 -3721 -9520 9533 -9881 6458 -4733 7379 -3888 -7673 -3777 7760 0
-6492 972 -8965 9275 6690 2878 794 -4756 -1067 -9506 152 -1261 521 -2050 -9782 0
4263 9351 -4687 7399 4579 3839 6834 8478 -3268 -2583 9355 7031 -6729 1090 -5228 0
6877 -8023 1331 7864 2156 7355 -6593 6399 -4970 -2865 -3153 6525 -7818 -172 -4860 0
-554 -7769 -3316 -8082 -2825 -7481 92 -2752 -8808 -4738 -1194 390 6218 3671 -9978 0
1509 -4154 7658 7893 6586 3103 -3400 3563 8001 -3283 9487 1066 -4493 3695 8700 0
7837 3921 1079 -827 -6467 1791 8803 -6010 1753 -4408 -5364 -8508 -6928 -5820 6389 0
-7157 -6057 -168 8776 -3734 -7890 -9812 -1078 704 4907 -6471 4857 9085 4531 -7209 0
3221 -9733 1486 3546 -2259 -1962 4515 6271 -7457 -8713 6622 2157 9370 7818 -8004 0
8345 3872 2911 -3070 -51 8061 -4785 -2253 -5730 767 -2663 6480 8572 -1175 -9085 0
1077 -8391 -2515 5016 2349 -3045 8172 -2203 -3753 7994 1131 5182 9521 -6697 1351 0
2943 -5206 -4821 990 9095 5267 4210 -7138 1809 1286 -858 -2560 -555 8438 -3759 0
2189 3913 508 9835 -494 4755 6860 270 -9430 -7380 3233 -6210 9433 -3787 3586 0
6500 -8730 -500 -8157 -8302 6352 9126 -6390 1475 3464 8804 -6701 1727 8120 -3411 0
-704 -399 9158 171 9621 5963 -5699 5844 7850 -1840 -1724 -4234 8925 -4535 -9350 0
5893 -8871 2064 3644 8752 6715 9821 7003 -8240 -5135 8704 -9182 9806 797 -512 0
7530 1511 2741 -7158 -3096 -2340 3786 -8692 6949 2877 7316 9177 2912 3778 7109 0
7199 -7944 -3613 -6867 -4581 8248 3265 7170 -6973 4876 -1023 1213 -7022 -9272 -9447 0
6882 5711 9640 -1253 1362 -2354 3573 5066 7778 9072 9860 -2215 641 -3975 -2801 0
-213 -262 -4134 -3192 6832 3071 -3039 -9700 -6187 -8188 -4654 9664 6064 -8537 -8097 0
-6455 -1391 -5855 -5495 -9964 -3966 5965 5605 3740 807 6233 -1157 2239 -9632 -2538 0
8797 -4226 7985 2588 9344 -4043 497 -3712 -3803 8328 -5251 420 -1528 4487 -2293 0
7187 349 7825 -436 -6679 8789 -3 -4009 4918 -23 -6051 -2302 -335 3314 6589 0
7983 7057 -5031 -1003 -2249 7879 5867 -415 -3137 -4933 2893 -2602 3165 1534 -5877 0
5323 -2153 9234 -4165 8263 -2801 -8244 -1413 9452 -6431 2805 915 3415 2417 1713 0
-4080 -7240 208 -9371 -9101 -2460 8540 -2009 -2256 -1382 -6486 2064 -960 -5010 8949 0
-8324 -5179 2810 4582 4048 5966 684 6452 4988 -3023 3204 -850 -9590 -5086 -4990 0
-9141 5462 -4774 -7091 -717 2402 -7534 -4366 4232 -2607 -6607 -5489 -6371 -8492 -8669 0
-164 -121 -5976 7286 -3499 -4971 1941 -2512 -6968 -197 8532 -4627 6768 -4166 -9280 0
7972 1122 4574 7097 -9178 4347 -7588 -1936 2532 2228 4196 7797 4479 3954 -7897 0
-4771 8177 -3072 -441 508 2749 6290 -6080 67 -735 -5755 9961 -2555 1901 9212 0
49 3447 5350 1787 -2796 2773 406 4990 3919 8171 310 5250 -2823 -8694 8052 0
2412 8984 -5974 4639 904 -637 -5333 -7413 606 4458 9357 -3970 4914 5979 5681 0
399 7194 4938 -3498 2964 -745 -2236 8707 1558 3490 -1704 -1366 5345 6162 888 0
1885 -2060 -9624 -9462 4489 158 -5174 8127 -5623 8361 -4271 -1617 5447 -4956 1660 0
-8256 -6218 9125 4163 -6230 5376 -5297 -1006 -6984 2074 -8911 8602 1039 -5284 -6213 0
5860 -8002 -1261 -3602 -1561 -7593 254 -7462 3782 -3141 8091 5480 78 1827 -4665 0
5387 1012 -9058 -1544 -8046 407 -8782 -8275 -365 -3885 -2173 -5507 1749 9854 -1751 0
6842 -9250 -6457 1684 -1328 3143 -7596 5335 -6102 2641 4720 -7881 9883 6309 -8278 0
-2524 -832 6052 -4279 -3 -9535 3791 -8002 -2100 6330 840 9921 -5061 -4664 277 0
9041 4994 -3775 84 2787 -9779 4543 -927 6360 -736 6051 -6049 4310 -7198 -1549 0
-8828 -5400 -680 69 3768 6304 -2607 4293 -2230 2893 -336 2664 -4285 -5052 654 0
-8295 5823 8418 8094 9504 8999 -4203 2112 -3381 386 1394 7008 -1405 9557 665 0
-226 -8429 8356 6047 1951 5850 825 -6648 6803 5535 -9284 5605 -6479 -9867 -1742 0
5417 4335 1368 -3740 8692 -1775 -2390 -4183 9206 -2809 -2452 2295 591 729 904 0
-1940 4384 8522 1186 -6775 -7987 -9982 -2844 179 -5104 4270 -377 2730 180 -2282 0
-1253 -9694 -7350 -2030 5814 -3325 8181 3071 -7448 2756 -8132 4135 3154 -2509 7907 0
2247 -1275 -6705 -7343 -5937 8032 -6515 1150 -6067 -2624 -6089 5448 -1384 6780 -7378 0
1206 -5495 -907 -1072 7874 -980 8546 2546 -9556 4420 7710 8310 4072 3054 -969 0
8960 2613 4262 6924 -245 2500 8366 -656 3566 3606 843 7087 -1267 3952 3691 0
9406 -9204 -4900 583 6425 -8393 3053 7972 -441 9592 -7999 -5433 7314 5167 3327 0
5294 682 -5406 3077 8898 -638 -9554 433 -586 -3131 5265 4613 8483 -2628 -9772 0
1950 -2266 7583 2649 2644 4703 5045 -9446 -8481 7294 -5586 3210 -2138 8449 4971 0
-921 -2124 5353 -7401 8287 8205 -7645 1049 4281 5773 -2183 -7784 -5162 2779 38 0
2953 -1722 -3551 -3058 2102 -4196 4637 3086 -7171 5141 -2959 424 -8837 -2693 4644 0
2039 8362 -4157 -5375 -839 -4787 6223 -1485 1863 8134 7948 -5015 -8215 -735 6031 0
3652 -8282 -6181 2357 -3281 6337 -8260 8742 6847 5042 4680 4398 3596 4741 -9143 0
-7513 8137 1097 6765 8477 -5376 60 -363 -2697 3326 -6899 4026 -9263 2263 9511 0
8460 5305 -2013 8515 2034 -9277 2190 3239 -3039 -391 -712 -2727 -1212 6898 4991 0
6691 2507 -1069 -6485 -9937 -9820 -303 7376 3246 777 -9138 7584 -3607 9720 3345 0
-405 5939 1720 2684 4589 2852 -9420 -9921 -4903 -6200 9462 9576 -432 6811 -3969 0
-6749 -5483 4103 -7092 5164 410 -4626 -3061 2018 -446 -9166 2353 8275 9437 -2706 0
878 -9593 6215 7825 8483 6357 -4933 1079 9170 -3132 -3097 -1201 2182 -2556 8605 0
-634 3603 5814 -1632 -6433 -9888 2443 6267 -8633 -3436 -3367 4357 -7719 7862 998 0
-672 -4781 524 -1867 -8606 -1719 -4448 2538 8080 8730 5851 9524 6618 -6288 2427 0
2545 -2389 9750 6788 1427 5558 9132 8068 7614 2960 3416 -6284 4048 2709 169 0
-9058 -634 -6589 -287 3401 -6071 -8117 1060 4509 -2947 -6170 -5019 3843 -1897 -9492 0
-7401 7591 -8636 1599 -724 6144 -7946 -6350 197 2463 -1147 -269 5644 9280 9164 0
-3399 -1145 -797 -9164 -3835 -2163 5276 3284 -6030 -822 4830 9749 1416 2494 -4420 0
-2239 -2698 6468 667 9985 6304 5987 5680 4830 6551 -8756 -1674 -2445 -5879 -3163 0
-2536 -5200 3822 1667 4604 -5025 -3693 -7724 -9796 -7861 8173 9108 8372 9926 4329 0
-8295 6372 -3292 -9632 -2856 -407 -3161 -2750 8520 1090 2987 130 9414 -2536 -1726 0
-9033 -3820 8718 2250 -7184 4611 -3616 -5759 -5515 7029 5468 -7079 -5126 7600 -4213 0
730 4922 9895 -9536 4904 1226 -8675 -4331 8438 -9072 -9359 3057 -2960 7215 1479 0
7397 -9802 1264 -5557 -52 2997 -5472 5320 -5733 -6931 7995 1577 5766 -1492 3986 0
768 3055 -4884 818 9127 1672 6065 1263 -5711 2681 -1628 3414 7643 -2813 3573 0
-2843 1328 -6330 9535 -1222 2640 1311 -3537 -8088 -4272 1470 4994 -5413 3018 3209 0
2392 8390 -5481 -4436 435 -4397 975 -9069 -9861 -4226 -4354 -7206 169 7510 -5195 0
7716 818 6629 8594 -400 6638 -5411 6599 7001 -2759 -4225 -9589 -9534 3737 4512 0
3469 360 3529 3918 1142 -2247 3374 9694 1956 4470 2736 2948 -8512 -8169 3415 0
8629 -7382 -552 89 -1466 -3529 7682 -7779 -1789 1101 -4129 -8523 9142 40 4280 0
-1268 1117 9294 5700 9480 -7818 -3643 6675 -9948 5095 -7211 9950 7448 -4381 1810 0
9988 -5618 8910 7142 -6055 -1650 7327 -8904 -9730 -5548 -2911 -598 -4829 6898 -7584 0
-3780 -2177 -7571 9771 8615 -3764 -9800 2215 2714 4121 9028 7887 4365 589 -4967 0
-2617 1689 -5400 1971 5929 5825 5690 1442 -3096 -5794 -8573 6594 -5653 -1926 -1635 0
-7212 9056 3927 -5591 3404 -5039 9363 5889 1788 -2818 -1401 4681 470 8262 -2099 0
3533 7347 2061 -2740 8977 1563 9549 1863 -8675 7860 9869 1263 -8955 -5535 5907 0
9579 7244 -9532 -6388 -8773 -9110 2288 6111 -7190 9939 59 244 -8277 -1528 950 0
2218 -7823 -3579 6047 -5130 -1691 -32 -156 304 8155 -2273 5758 1375 -5313 -2719 0
-5048 -9990 -9508 -8921 -9689 4518 -3058 5559 7614 -7483 6425 3360 -9485 6850 3 0
1377 9750 282 -6937 -4840 5695 1106 -2505 3652 4148 748 4482 -2444 -1768 3218 0
9780 -4281 2475 377 758 -4197 -9606 -5644 4338 6327 -2492 5946 -5872 8746 -4549 0
-695 -8963 7455 9712 507 -9579 7599 -1493 1218 -7351 9548 -3744 -7202 -1082 -4733 0
-640 4134 -7803 7733 -2933 1290 3561 -5801 -3542 8411 7069 -916 2082 4954 3947 0
-9387 6996 -283 9024 2389 238 -2388 -5433 -6832 4309 7605 2214 -1456 817 -4988 0
-8202 -7372 7282 -2978 6325 3879 7709 3068 446 5197 -9498 -6351 440 -2579 -1303 0
-6162 3831 6791 -7286 -5589 -3597 5789 -3357 -8720 4584 2768 -9938 4917 101 -6633 0
-938 7825 5517 7965 2189 -2207 2319 1960 2213 6804 3803 -4370 887 -3629 -7986 0
5096 3036 6646 6443 -2259 -5986 -8239 -3789 -4350 -3386 -9206 1546 2052 -5901 886 0
-8620 6430 -4737 -3690 -6346 -5989 -6395 -4398 -5561 -2670 4877 7174 3588 6326 -3643 0
6577 5611 -368 8342 -1428 1025 5941 9439 -2412 6128 -8871 2038 -7178 -4891 -3680 0
3109 8550 2265 8677 8886 4237 2649 5370 -6301 -4801 -3447 8185 -7555 7709 -269 0
4117 8417 6302 7103 -5063 -849 -5573 -5546 -2424 508 -6350 -5405 -9214 6377 -7128 0
5103 -9064 248 -1347 -4974 -3265 -5470 4518 4681 2270 -1249 -2654 -232 7538 862 0
-815 2249 2680 2818 7736 6993 1440 -8419 5390 2597 492 8655 3333 3284 -1903 0
3215 -7329 1095 -2506 -8100 8400 -8137 3063 1629 -4458 2237 -6925 -8685 -1822 -716 0
-5468 -2830 -8988 -9096 641 -7259 1792 -5204 -7776 9717 -8330 -2805 9143 802 6121 0
-4525 9600 -7385 -6602 9214 9690 -5060 9100 -4027 8519 -8286 7378 -6718 -7351 5556 0
4647 -8246 4094 -6932 626 -8941 4197 -9895 -9588 2293 3631 2226 -8297 9630 7997 0
5276 831 -7542 765 -9510 -8687 5250 2396 3124 6370 9391 5041 6071 -1421 -3631 0
-1 -8332 8585 6350 1798 7054 4916 -8085 -8819 3965 -6520 7319 6972 3841 7646 0
1807 -7801 4137 -3731 3988 5078 5367 -4112 -2214 4108 5247 -2466 -549 -8880 9011 0
3983 -2865 -4673 -8145 1505 7541 2893 9266 -204 4548 -1566 9332 6805 -2012 -3605 0
-4460 -9135 1659 -437 2189 -9830 -1885 -489 -158 4577 5645 6555 -7934 -622 9260 0
3732 -3012 3091 4654 -4052 -4185 -7157 8723 -9011 -4865 4544 37 -1155 1595 4051 0
-482 -8002 -7237 -5292 5721 4973 -4456 -1657 8476 595 7875 -1079 9474 1278 -2495 0
5870 1229 -2447 1308 6365 8187 9120 6975 -7292 9998 -6395 5916 -803 -1279 5092 0
-2095 327 -9846 4459 2884 -7348 -4596 -9769 -517 6174 8960 -8442 3546 7385 -1598 0
7430 2272 2901 -2815 -5988 5828 6292 6216 5754 -4851 -6148 1545 439 2040 -1078 0
1378 1995 5574 7120 -7428 8660 -5860 -3513 -2248 -9415 -3339 -8794 -7550 -3325 -1061 0
-2392 8257 5583 -7121 6145 5130 6755 -6360 -3043 1804 -800 -7055 1869 -4055 -408 0
-8874 1110 -3383 1758 -8865 8457 -8404 3741 7496 -2142 -2379 3623 -3902 1391 9801 0
6813 6858 -5183 -3952 2712 -1448 5937 -1894 2077 -5184 -6143 -9621 9402 -9707 -6746 0
-8941 -2211 -93 3712 -8213 -2362 9760 9827 -4290 4976 1893 582 -8294 3500 2196 0
-7269 887 5275 -2343 4965 -1808 -60 -8054 -6752 9042 -1894 -1953 5555 -4023 7573 0
-724 -5440 -305 9384 -224 -2102 1474 446 537 3622 -2612 -7796 5716 -5253 5370 0
9096 683 1078 5596 1683 -5589 411 5202 -1393 -1907 1989 -9219 7347 -3827 3809 0
-7303 1356 -7670 1388 -3132 6601 -4489 -5269 -6867 -7185 3752 -3354 5260 -9171 5900 0
-6156 6943 656 -1775 -5585 3506 4169 -5736 1087 8617 3392 7651 3545 -9214 2917 0
8264 6466 -4342 -3354 8223 841 1686 -4649 -6783 6683 3782 -1136 3149 3721 -6159 0
-4305 -6226 4694 -9718 -759 -9651 -6744 4329 -3232 9034 -6547 -2777 -9282 3780 9587 0
5262 -4869 2241 -2021 9215 -191 -3710 1357 -6288 6080 -3881 5291 1972 974 -8455 0
-4757 -7499 2786 409 3109 -7459 9941 -4174 -4096 -7144 -1378 3708 9853 6780 -9961 0
407 -6047 4614 -2756 7569 -6891 -3739 -5071 -6425 -2356 -7828 -2006 -2117 -4486 2358 0
-2518 -1937 4027 530 6927 9463 -3073 -4328 8342 -2613 -7209 6858 -1386 6245 4905 0
1057 5118 1661 6722 -933 3657 -2159 -7028 934 -2742 -9905 3780 -7040 -3492 -390 0
-3349 -7871 1768 -9890 8489 -6845 1026 4635 8422 -4993 1541 3413 4204 -2180 -5469 0
4409 2663 -8061 -8942 1866 -4391 -3287 8933 6269 2719 -4130 9388 2393 6033 -2204 0
-2430 8101 1383 196 -9393 -6664 9993 -4292 -7630 -6198 -7736 -8513 4941 3122 -8627 0
750 2178 6969 2014 -8092 -1262 5645 7552 9571 -5174 -4688 -6221 858 -4433 6674 0
1023 1064 1301 -6890 -2714 8839 -3291 -9459 -2261 -5689 -361 -7690 -2187 -5420 -94 0
3230 -24 4152 9046 7215 8786 534 -5367 415 7883 6751 -902 4804 7124 4593 0
-8226 9721 -2840 -2797 -2742 -9787 -7357 -5647 -1204 6827 -5087 -1852 4780 7701 -9930 0
-8038 192 1250 -6394 3071 5289 -290 -245 -1637 -7265 9270 4183 7726 8435 -5161 0
-9220 -2123 9780 6707 5977 -5412 524 1826 2467 -7905 9032 2565 7696 3971 -4763 0
-2441 2045 8024 -275 199 4328 -866 -6879 -7304 -8728 -1438 3798 -8632 4488 -3964 0
6659 13 879 750 2436 8863 -1559 6123 6790 -1764 -376 -3710 -3991 7585 -9183 0
-980 6363 -1933 -9591 -4014 -1175 -2290 3737 5574 -519 -9222 -7143 5627 -1904 6869 0
-4269 5329 4790 804 -3072 -8158 -2572 -6445 -8679 5509 5285 -9071 -7397 2707 5473 0
3615 1001 4414 -8726 -4770 -1411 -5418 -9737 3254 6484 -7204 2910 698 -2602 -3124 0
9191 3478 -9365 8387 1004 -8741 -2484 2345 -7516 -927 -5455 8996 58 4528 9028 0
-2092 8564 -3538 62 -5081 8420 9366 1124 4562 -8207 -4804 -279 5115 6205 9785 0
-1404 9748 758 -6758 6943 2819 4975 -2739 6705 5663 -5291 -2511 5179 -7641 6999 0
9677 1755 6991 8738 -9144 4231 -123 1333 5145 -3575 9347 4471 4304 -8230 3350 0
-877 -6164 7794 -6437 -4517 -7870 -1305 -8736 1866 -2986 9018 9180 -2238 3106 -2689 0
3892 -3569 -8720 6253 -4492 -8314 7972 4572 -333 4004 -9096 2244 1539 820 -3542 0
-8757 2538 5355 5309 6024 8974 -562 1256 -7126 -6694 -1366 -5276 -9137 -4954 8208 0
199 -2015 -8478 8657 -1044 -2250 4164 2388 -6710 8278 9559 7781 -7248 7238 -1688 0
-8010 2294 328 6653 -1230 -770 -4901 -8953 -8825 -5733 -7883 8490 5358 539 8233 0
-5492 -9450 -9257 486 -3285 6119 5584 97 -7399 -9436 176 5949 6473 -7566 862 0
-2705 4581 2081 -8155 6715 -5597 5 -7869 9068 5541 2717 -8546 -9397 1384 2935 0
-9937 -441 3647 -7103 -5636 3454 7209 -2921 6657 -5309 8036 173 -9419 9087 8568 0
-1561 9008 8388 6350 -4876 -7730 1357 4984 7710 -7291 -3339 -1165 5412 9682 174 0
-9842 -2611 7301 2109 -9307 -9885 -8907 -1361 -6477 -3331 -5444 9757 5270 -6848 -7873 0
1698 -9111 -7157 4788 4209 9945 -9921 -6549 -3072 -5453 -4494 -827 -4299 3030 4191 0
3135 -7640 1992 6631 -9800 -5914 1816 9494 -8622 -6846 -7209 7052 -7941 -9725 -906 0
525 9544 -555 -6091 -1587 124 63 -4658 5803 5360 7040 -9735 -1875 7880 1783 0
-220 -6267 3861 -1625 -1276 6463 -1397 -1857 7004 -3055 -5740 4125 1559 84 -9855 0
-83 -327 2712 3262 6589 2543 2744 6246 5127 -7168 7666 -2718 5601 9650 -3177 0
-9138 6500 -6565 -1619 1298 9605 -1787 4908 -4984 7444 -1266 1764 -1978 -3320 6602 0
8241 1968 9330 4617 -5300 -2338 -2107 5358 -7563 -9090 -8254 -3069 -6751 -8517 4589 0
-4173 9208 -5107 456 5946 776 -6271 -2369 -3978 -2900 9657 8681 8111 -5865 -849 0
-4241 3388 329 4476 700 -3961 -2807 3505 2879 601 7271 -5462 -3021 5631 -9045 0
8404 9343 -9010 322 -761 862 -5093 6267 -531 -2742 7283 -9537 -7144 9785 4573 0
3214 1109 -1230 -9882 5038 433 -7676 -6226 -6526 1996 1148 -4632 2014 3405 4556 0
-8262 2670 2856 -3316 -5210 8547 -806 241 -5147 -1686 9892 -7672 -6221 8602 2907 0
-1696 -4249 -3391 7950 -4854 6622 7261 -5856 9031 -2495 -5111 5666 -5682 1732 9451 0
-4595 -8267 9463 864 -2710 -8004 9391 5791 5172 115 -6578 -2193 -4288 -1812 -8734 0
2462 -7681 -4448 -6431 -2631 -7623 -7287 -9918 -150 1751 7751 -7644 521 -6591 -3101 0
4563 -8288 2443 -8895 5184 1624 -3543 -1427 -3524 -4138 -1187 9964 -5706 2405 607 0
1761 327 6689 -8920 1806 -9405 -372 7347 2483 608 -9711 2772 -1499 -5802 -4599 0
1731 4056 -5879 -4671 -5266 -7815 1737 -1426 -9715 -4723 7518 122 5647 -2921 8869 0
1931 4838 -8259 8862 -2892 2610 -8565 6012 2474 -8223 2787 7206 8187 -9959 -8541 0
-5658 -9401 -876 170 -8411 333 1629 628 -1124 -5108 5336 -9895 -5287 2931 -4050 0
-719 6906 8154 3087 -1202 -5167 9395 -180 -8190 -1158 344 -323 -9115 9340 9914 0
-4819 8792 6453 -4822 8694 8734 -1063 -1061 2632 8348 2568 3952 4011 -2348 3417 0
-5003 8833 2504 -1889 7920 -9869 -3375 -2490 6662 -5750 2968 5368 -8932 6311 -9865 0
6253 3223 9748 2130 -9348 -6263 -6199 -7403 -7694 -5349 -594 -4992 5043 4829 5430 0
6684 -4045 723 -7040 94 -1205 -4270 -8281 448 1772 -3841 -7319 -9579 -4077 -1746 0
1116 2576 -368 8178 293 -4364 -2667 -1952 2788 9540 4067 -9610 -8798 6513 3926 0
-9962 -4998 -1656 2911 -2469 -9113 -961 -1752 -2135 1269 654 3905 -8890 -781 1925 0
6814 1738 6663 -9572 2413 -4521 2745 -7158 -1347 2491 7788 -8051 -1098 -5285 -1750 0
-9082 9380 461 -2418 5419 6809 2210 214 4346 -4729 -8007 7598 -7265 754 440 0
-9396 10000 3754 -8402 5761 -2716 418 532 -3895 9063 9136 7095 -7976 -9257 9131 0
5345 3427 3555 -9012 -765 8523 9705 -4569 5355 -2638 869 -3859 3381 7631 -8858 0
4231 -5706 -8063 -1503 6437 5897 -6713 6647 -9160 139 -2373 -2690 -9450 -9361 -1791 0
746 6221 -6151 5288 -7540 6055 -6740 -3080 -4947 8051 6561 -2698 -3804 2355 -776 0
-5882 2073 4182 6884 6106 937 8245 -9878 4801 -4359 8974 4620 -1743 -4909 4810 0
1698 9554 -4944 5795 -2162 3583 -939 8084 -9529 -7278 -3559 3817 -8500 -2777 4214 0
-4464 1221 7042 -3420 8880 -7581 8952 2577 6625 -349 555 -6247 -8938 33 -4989 0
9111 -3531 -187 -4256 -4875 -6564 -9821 7285 -2617 2983 9688 -354 -3636 7025 -3895 0
-1519 -1032 5709 6545 8772 5601 -460 -3844 354 -5045 -9102 7129 3891 7075 -9427 0
194 -7018 -3801 9607 -6775 -9369 -5394 273 2223 5779 4406 7584 4199 6033 9951 0
-4152 665 -6148 2399 -9075 -6757 1432 -2985 -2202 -4787 -5505 -6885 -1286 6339 -7301 0
-7366 -8189 -130 -1102 -89 1048 -5896 7223 3647 2718 5004 -3845 2879 -1349 -1870 0
850 -4750 -5491 -8331 -38 2030 1276 3038 -4389 2453 8214 -2742 -175 -9907 2836 0
3546 -9009 -2795 2167 -6801 200 -9438 1078 4536 9014 -9720 -4075 2845 974 908 0
5453 -5388 -2229 5534 266 -2897 -8789 2371 5451 5131 7204 1241 3390 -8102 -4062 0
5335 -2003 3919 6296 -9250 95 5451 -2417 -7783 1169 -599 -7796 -3540 -6845 3738 0
-6247 -4547 -9445 -7739 -8516 6152 -7218 -7151 -4827 807 -883 9343 7552 -5668 9673 0
-429 2893 -8260 -2827 562 406 9404 6066 -6038 -808 8225 -9077 1969 1435 -9597 0
-1674 7891 -9452 -4483 -3359 6993 726 -8518 -6845 1935 -277 944 2608 3328 -7213 0
3866 5436 -7985 7631 -8057 6640 -9608 -6381 7288 -3023 7464 1678 6154 -1818 1542 0
-8831 8920 -7292 -835 8034 6126 -2100 9568 353 -4465 1876 2536 -4935 5237 6254 0
4376 4296 1220 4389 -3288 3374 59 -8746 -3572 -3232 7918 1424 -6485 -2354 -6102 0
5248 1455 -4600 -29 686 -7238 7046 -3574 -2895 3396 -4626 5687 8117 -9849 1460 0
1330 -2478 6205 7993 -9243 -7236 8373 -6730 3361 -8299 -3099 9619 -6941 -9672 -4008 0
-7257 9889 4705 35 -9418 1452 -5633 -9110 -6526 -4254 -5699 7270 2398 445 -9427 0
3468 3057 -4587 7123 9043 9769 2273 6044 8546 -1671 9357 -2032 -9337 6383 -2574 0
6053 -1133 5442 -3597 2788 -5090 -2962 7701 -9399 -8488 -9858 8606 -1427 6610 5200 0
7794 -3738 312 -3929 -1393 -6149 8745 -4894 -95 41 6323 -4070 8221 45 -511 0
-1066 -1725 771 -7617 -3010 -6511 -9127 8514 9297 -5627 3767 9137 -7572 7481 -8038 0
-6325 -243 787 8931 -3157 5139 -7230 -9611 8478 8231 7999 -5846 -2092 9044 5237 0
6658 -9905 -5933 7059 4396 -3846 5293 -2699 9866 -3064 -5402 1557 7927 682 -1919 0
-9450 3444 -7889 -3494 7542 7624 -8631 -5072 -8549 7531 3073 -6887 2010 -8129 -3119 0
-2861 -4175 -2928 -5763 3940 5170 8247 -591 -3511 -5095 2130 -3919 1141 -7125 3225 0
7470 -3728 -1541 -532 -9441 2340 -7083 9768 2776 -1587 8790 5402 -7909 7331 -1052 0
2830 -1435 753 9063 -5650 8071 8716 7549 9258 -2285 -6925 -1034 -3118 -9990 -3250 0
6216 -1837 8786 -5632 9503 6894 2734 -2619 1167 6516 8808 1554 7961 8927 2609 0
-7368 -6082 5303 3123 7122 8517 7797 -2076 -2778 6890 6796 6182 8140 -2031 9279 0
-5184 -7467 -5653 -1350 1063 5987 -2139 3684 -8738 -4237 7610 -5649 4375 3984 -3048 0
-1208 -5597 5679 5831 -8887 -9568 -8013 2781 -2241 6146 4192 5084 -9183 -6096 -7821 0
3686 4266 -1166 -8429 -6074 4322 -5840 -3184 -3223 2322 3664 4858 -1434 -9064 1661 0
-6664 3594 -4317 4090 4486 4897 6385 7273 -1859 -3198 993 -9389 -7507 -68 -5783 0
7891 -5142 7348 9208 -1024 710 5595 -2153 6976 3617 8788 -5315 -6174 -6115 -9137 0
2628 -8237 -9418 2009 3321 -3662 -7668 -5318 7634 36 -2478 3327 -480 3229 6203 0
6393 8042 8828 -4929 -506 9067 -4837 -9629 -1957 -6459 -2997 5066 4644 -8464 9697 0
8761 -3710 324 4619 -2510 -3901 3524 2080 9313 -2534 -6930 6046 7965 -7455 5607 0
-5228 9834 7327 -4126 2320 -2000 -8612 -5534 670 -7309 -3081 9343 -5264 1504 7371 0
-7288 -4534 5913 -2091 5896 1757 8923 -7554 -1765 -4933 -9085 3977 8791 3884 -5830 0
7408 -1503 6456 3305 4014 7058 -7327 9821 -3447 6329 -4646 33 -5020 -836 7942 0
7124 -6666 -9066 8780 -7717 4064 -8038 -9604 910 -6641 -6299 -6713 -9653 -1386 6606 0
-4494 6695 -1325 6787 8182 -4000 -6938 -9288 -9236 -5556 301 -231 9586 -9932 3919 0
-7782 478 -4658 2972 -5754 -3552 -3921 -1372 9179 -7308 -1845 -3360 7519 9126 5089 0
431 -6392 1032 -2272 1134 9173 -8457 5161 -5099 6128 8818 1589 -5605 1145 -6721 0
6710 -9109 1821 -1584 -855 6127 7940 -8537 8648 8796 -4678 9599 6234 2200 5359 0
6820 7705 2040 -3027 -5292 -4437 -6181 3188 8760 -7025 4824 -5820 3886 8132 3997 0
2391 7723 1987 -2334 -6535 7249 9187 1948 -5848 -4259 4828 8910 8732 -1061 -4900 0
-3698 -7241 -3897 -7070 7784 1701 1068 3711 7014 -4839 5503 -9604 -3646 3967 3975 0
7232 2366 414 -490 -6169 -1136 -8451 4559 -1212 -920 2885 -6835 -4435 8415 4110 0
9440 1538 -3308 -8735 -8846 -5288 -602 3540 -9083 311 -120 -9342 7060 720 22 0
106 1403 -264 9273 3921 9657 2352 45 7241 -3896 -9257 4760 3664 -2987 5724 0
410 -9761 -1364 2852 7370 -1937 -347 2793 3960 -4596 -6216 6539 3324 4595 740 0
1575 6385 -9352 6196 6012 -7872 -9974 1856 9923 159 9902 -9547 -6900 -8386 -4707 0
-7556 9103 -6953 -652 -4773 8231 6413 -494 -3729 3723 -9869 -4258 7670 -9753 -9149 0
-7887 5078 4493 2029 5681 7212 3423 -5281 -6384 -4366 6659 -6579 7830 3774 -8351 0
-5238 2177 -8668 8392 2332 8618 -5630 7152 6261 1742 -6834 1194 -4531 1416 -3716 0
3868 1827 6938 -2921 -1135 6046 306 3983 4710 6985 -8379 -2133 1294 4148 8021 0
3415 -1095 5909 1452 -976 2928 -3966 9051 8214 -9589 4556 1424 -6824 4356 4986 0
-9952 -4735 -8510 -5483 1719 -1070 -1007 -2705 -3592 4361 8361 -1597 -3144 3853 4065 0
-3994 -5218 9905 3411 -7685 -5046 4224 -3294 6354 4124 2079 385 7582 -8901 9178 0
-9017 1069 -9825 -9673 -4436 -4416 -5471 -8500 8416 -4330 -6738 -310 -6046 8702 9712 0
-7637 8567 936 7127 114 2898 -1741 -8942 6855 -498 2123 -7887 -7609 -2806 -36 0
5073 -8751 -6887 -8876 -4347 6948 9772 7231 -3149 8642 7928 8953 2444 -4389 -2223 0
2476 -9759 -8344 -5504 451 -4806 -4571 -8896 2460 1197 8449 -3200 130 3478 -7147 0
-1234 4196 5750 712 3147 4430 -7595 -7290 -4678 -8247 -3352 -8696 -2037 1706 8178 0
-8799 -8475 6002 8643 -7506 4585 3282 -4296 4896 -1729 -2043 -6582 -8066 4297 3566 0
-3656 -9994 419 -7523 -6520 -3277 -5656 2084 767 -4744 3688 6501 -8453 6029 -3980 0
7869 5612 -825 -5999 564 3699 9196 -6498 2858 6745 8938 -7607 -5511 884 4208 0
-9208 9112 7207 -7455 -5562 -1469 8689 -9217 3751 -1839 7384 8197 -3724 -4843 -9285 0
-2579 2050 5506 -9724 -2261 4771 -4841 4641 -1781 -3833 -3069 1339 -6916 -1810 4948 0
5163 -4843 1986 9164 -5439 3361 1548 -3201 7319 2804 -4839 7093 -1742 2200 2791 0
-5630 -6770 1021 -2046 2189 898 5797 -1355 1512 -7829 -4574 -8436 2620 -6329 -1135 0
5086 -4368 -8864 -5914 -6080 7035 8270 -940 -2584 1880 8741 -4697 -8381 2168 -7769 0
2132 3563 -4279 7430 -7754 -8271 -4341 -9290 4508 9059 -5170 -7667 7360 1803 2073 0
7526 -7519 2207 6860 -421 -6708 -7996 445 4358 5978 -5972 -6530 9944 3898 -9882 0
8549 4953 -4434 -8009 -3542 3597 8996 -8763 1625 -7650 1800 -1998 7344 3744 7621 0
-9953 -4757 334 3223 2543 -53 1520 -9666 1714 430 6100 -5030 5329 -8497 -5060 0
453 4207 -3576 -2187 5067 -257 -1985 -3918 -9819 -3305 3705 7770 -4646 5815 606 0
-7084 3657 -5424 -6589 -5840 1462 -9030 -6568 -4900 1801 -7705 -2305 7630 -2195 2308 0
5941 7221 -5815 -149 3177 7925 9760 6219 -1794 8743 -1710 -2540 -6905 6964 2731 0
-5929 -615 6763 2362 3621 2526 -7837 9392 -3581 -5791 6414 1562 8637 -7042 3020 0
-7871 3359 -6173 4108 8090 -3269 -167 -7683 -3099 7936 4328 -582 3475 -4105 9006 0
4243 -5640 -1917 8405 -8002 -8355 -1808 3809 2628 8780 -4256 9453 7239 -4530 -8945 0
-1044 7611 -3326 -5404 -8961 -301 -6600 5944 -3806 5669 8361 -7909 -5091 -7537 -3086 0
5124 8968 5790 7031 -9964 1610 4252 54 102 -3155 -1837 -5620 8560 2171 5987 0
-73 5629 4372 2045 924 6094 5012 8577 -3192 -898 6267 -2176 -6373 -5073 6189 0
-1330 528 -1153 2361 -9168 -7320 1633 -2357 1763 507 -928 -6973 9873 584 5990 0
-9943 4823 -8147 -6242 230 1725 -2285 1347 -4444 -4262 5432 -5556 -8437 5634 -7174 0
2747 5346 -4063 -4159 9025 1962 8294 -8350 4027 -6472 2111 2066 1619 -7171 6006 0
-3960 841 -9032 -3649 7647 -3957 3139 -8265 -7744 9974 -8111 4985 9573 8278 1299 0
-3197 9166 -9017 -6743 -8830 5996 -5053 -5557 -1216 -9138 4003 -1230 6249 3972 -5131 0
392 8786 -549 -6549 -3248 2613 -46 -5505 834 -4774 9544 -6657 920 -8369 -5593 0
7648 -3243 -1296 -9253 -5459 -7707 -8304 6774 2417 4456 -6582 -4703 7809 9020 2993 0
7464 4095 2331 -77 778 7743 5839 7781 8220 -2280 4557 9630 -6890 4222 -2336 0
-1040 -771 -5238 -4886 -7268 -3882 7114 -9956 -1189 -1558 -858 986 9136 1032 -2321 0
6977 3637 8699 -3057 -6668 44 -1322 597 4823 -1578 -1348 -5350 -4814 -4895 4985 0
-7673 -6512 -7874 3033 2858 2697 -2552 -3823 8400 5065 8357 -9428 -1148 -8793 8374 0
9407 -747 1951 -9734 8101 9138 -6972 5556 8684 2406 8316 7435 -342 2669 -970 0
-7277 7913 1527 -3965 5802 8423 -1347 -3992 6588 -7317 1871 7160 5792 -4625 -9333 0
-2814 -9677 2619 4186 -1824 -6558 -6329 -914 8756 2169 9711 -6680 -6057 2248 -6509 0
-3178 8027 -1015 6857 9466 -6902 -5536 9998 -6935 7641 5299 -7110 -4485 -7520 -7884 0
-1443 69 -4557 4952 -3125 -3089 1326 6552 -7457 9235 -5733 -2170 -6559 1606 -8687 0
4471 -4223 -6031 -6383 -3817 -2143 6499 -3069 2321 7087 -8381 -7132 5311 -368 3209 0
-2084 -188 503 -2775 -8739 1643 8469 40 5932 -1126 -5638 -124 -8438 3976 -7654 0
3851 2085 3866 -2956 3855 8127 5285 1121 7041 6212 -369 3726 6841 -2382 -8029 0
-7848 -1107 -8399 -8390 -6042 9966 -4738 -5063 -7672 9080 1457 1852 -5881 -9598 7044 0
1154 -1369 -84 -1121 5026 7662 5329 -7933 -1438 9351 3133 750 -6345 -1517 -7329 0
-2098 4510 -1125 -9632 2802 -6863 1596 -5845 3032 135 -84 -335 -6030 5162 -4966 0
7792 2991 -3555 -8811 9017 6521 -7698 -1363 2845 9451 6940 1247 -4329 412 8388 0
-7288 555 8185 3088 -6727 5155 7645 1686 -7286 7039 7383 -1135 26 6395 -6597 0
4903 -7267 -8409 5237 -5082 6533 8762 229 6567 -605 5584 -2618 -4107 -7081 -9435 0
1287 3348 -8183 8820 -3596 -843 -804 9302 -8874 6176 -8249 5711 617 -7288 6016 0
-2869 -1708 7356 9826 2028 5934 -2587 8422 -8914 8686 3454 -330 8411 -75 8324 0
377 -3525 7247 7157 -1798 -9195 -2425 7974 -6378 6075 -1994 4298 5489 8567 8563 0
3308 -9740 6971 8123 -3838 2084 -7469 5204 -2204 9368 8208 1676 2288 -2116 -7764 0
-1776 7215 3580 -8276 7648 -757 3364 -449 5175 2367 -5767 2849 9669 -1685 -8974 0
-5691 -9487 1390 -338 -890 7133 -291 311 -8226 8531 -1321 8095 5666 -8013 820 0
4259 -2843 -3777 8805 -8896 -6453 -2739 -1041 5251 2460 3619 6181 1518 378 -8419 0
-8655 -8835 -7766 -9558 3672 -1884 -4109 -7533 -1508 6107 6891 1457 7755 -6913 7827 0
2569 -7896 4019 876 -4460 1392 -9885 4574 7444 -3336 -5836 -8584 7823 -530 6647 0
5020 5839 7710 -5937 -2997 7064 1651 -7911 -5282 -8877 5476 9431 734 -662 5687 0
7471 -7462 -2588 5902 -9329 3520 -297 3473 -8538 -7688 4151 5802 -5936 -5493 -9466 0
2645 -3415 -4178 -2588 -9479 -8120 -972 -5061 -8596 7972 8017 -7716 -1617 -8403 -4268 0
-9553 8 3032 -3538 -4009 -1691 1778 5542 -9067 4353 -9187 5959 -9182 27 -6686 0
-3474 -5218 -5698 5324 -9711 -4685 -8866 2661 -4424 -3231 8415 -4041 5038 -413 6757 0
3850 8685 -7128 -5296 3258 5786 4077 -2043 -7970 9228 4782 -9878 5517 -7703 9276 0
