c Random formula
p cnf 10000 1200
-7802 7730 -2122 -5014 7416 7111 5500 -1169 -8018 -9465 -9928 -2908 -7683 -4083 6175 0
-4790 -2343 -5649 4218 7406 2659 -4336 -5037 -9930 4663 -3379 3907 2872 -7060 -2100 0
1546 8844 -1807 2872 -9682 2026 -6757 8033 3926 8508 5322 4272 -6236 8767 5149 0
5718 9456 9632 -2183 -7340 -395 -7933 9531 -5407 5644 6581 3753 -4796 1826 8907 0
-5602 -7321 9517 3764 -1985 200 5398 -5380 1020 -9295 6373 -191 8062 -9482 1150 0
9278 8118 8594 4216 -2855 2709 -9537 5810 970 -1589 -8914 -8377 2485 -682 -494 0
8169 6530 -5041 -8045 4224 9789 -9276 -8100 -2160 -6995 -2441 5299 2746 9897 -4152 0
-6081 9383 1701 1782 3801 -6802 6231 -5486 3945 3966 -4240 -997 -2235 -6061 -3796 0
-9315 914 -7679 8183 6242 7790 303 5743 4008 9864 6374 171 6135 -3287 137 0
6308 6654 142 -1046 9879 3459 -9469 8125 4487 1864 -9265 -340 8805 -1747 -9748 0
545 -2684 9452 -9442 -5049 936 314 -5131 8661 1247 -3967 -9992 -9015 -265 -3709 0
564 -3925 -3218 73 4947 -4702 -3625 -7046 -3073 -7663 -7786 6491 -4585 -3537 4661 0
3087 9012 759 1891 6646 -8712 -1611 8184 1529 -8391 -1303 -1197 -4768 -3744 -775 0
-5417 1502 -5897 4890 1246 7473 7817 -5910 1197 6366 1420 363 -3896 961 -9875 0
-4476 3903 -3720 5727 789 -2162 -2044 2608 -4940 347 8489 9021 -8940 8613 -9750 0
-937 1008 -4608 -1325 5630 5495 8204 -3722 -2424 -9203 -2100 -819 1371 -2078 -3435 0
-8585 -99 -6128 9215 -5472 1165 7315 -9089 -2844 7932 -6576 -5149 -9548 5546 6683 0
-2519 8156 -9483 -6714 9227 6630 -8512 -2107 -7387 4208 3962 8047 -8617 7257 7179 0
-4072 9811 3331 -726 7658 -4732 -3583 4862 -6386 2332 -6717 4583 -6541 287 7528 0
562 -3526 -9531 -342 -8828 4332 -7356 8316 -6653 -8522 -6278 -4747 -8659 7171 -7112 0
-4972 5994 9438 -663 7436 1485 -4668 -3841 9906 8328 4994 -8340 4732 -7586 -7066 0
-4566 -3134 -1224 -8084 4661 105 4600 7210 1609 -2182 -7307 8540 -7766 -4303 -9783 0
-3859 4321 -1607 2480 -4749 -9029 2646 -2958 -2034 6499 -6129 -9166 91 604 -8674 0
-4712 9297 -9548 -6087 -4782 -2185 -3920 -1433 -597 779 241 -6567 7240 6254 -2997 0
-8099 -980 1951 -3977 -6385 -5676 -9453 -7732 -7384 9837 -3917 -5319 -2011 -5858 6224 0
5469 -3083 2630 -7018 -7708 6424 1512 4632 -5398 9114 -9121 -157 -4318 8563 -6564 0
7973 -3809 238 5948 8148 578 -1558 911 -8575 8944 -1614 -4115 635 -6717 1282 0
3664 -8079 2121 -4865 3867 851 -919 1005 -3658 775 -3837 2355 5981 -3219 -2144 0
-8700 8180 -4781 6401 9202 -5419 4202 1285 -6201 9131 -2749 2663 9090 -1713 1668 0
2322 -6571 -7944 3558 1211 7310 9285 8333 -6089 8902 -2534 -9137 7572 -9782 -7677 0
-200 5380 9887 -2938 4040 1466 -1861 -9157 1095 -9755 -1989 -4184 -2292 -8566 -6444 0
2527 7901 -7649 -348 -127 7484 4593 -7753 -9877 3032 -1124 2472 -6672 9021 -3008 0
8316 8444 5295 6098 8622 2041 -7870 -7336 9324 -103 -8948 -4409 -8864 -7356 -7395 0
-2810 -7626 -1177 -9372 2299 5552 -6018 8819 484 4146 8623 1156 -9618 625 376 0
-9740 4226 -2979 -4906 1800 -7675 -1762 -1383 -3283 -4228 7019 4587 4760 -7174 -4372 0
5792 -642 -8663 2773 -9924 2527 8436 615 -9965 -51 6733 7646 986 2485 9635 0
-5101 -1057 -8613 -5972 -1896 110 4273 8910 -8693 1155 -5504 -4056 -6518 6247 4526 0
-2305 184 9750 8822 2650 6387 8586 1436 8126 8938 -5845 -7523 2883 4192 8414 0
-5826 -9866 -4637 7536 1713 6012 -4545 -6458 430 -8837 -9142 1618 -722 9144 2563 0
-9653 -2743 1626 -2187 6654 4813 3203 -941 470 2767 1445 -1740 -9363 -5286 3927 0
-2436 -9086 3983 3335 -3706 4944 5488 -7034 8022 -5897 -8109 -4037 9458 -4070 5410 0
7371 105 2968 5877 7836 5776 -3276 -2147 -3607 1763 -196 -1885 -2920 507 4979 0
-9510 7847 1022 225 -690 -4866 -2320 9636 6044 2219 9862 -2439 -485 -4539 3589 0
-2354 1329 6407 -280 5263 -767 -7440 -5017 2843 -6822 6651 -1574 1293 2054 2493 0
-5925 -4634 -3863 -4938 -3144 -9605 1955 8372 -6379 3555 -6734 9459 7789 3434 -8103 0
6497 7472 871 -9959 -9564 -435 1426 -6330 4873 4432 9157 9080 -564 -7155 9393 0
8371 -2808 -1296 -8083 4411 -8054 9038 -8218 5408 8598 -7969 -9450 -7923 -46 5077 0
-4645 -8920 2207 -5902 1777 7451 -3064 8290 -6154 4739 7916 6528 -3564 7347 3092 0
1755 -4077 6554 -2276 -9827 1057 569 3608 -3477 -7476 763 8266 5307 -7635 -9689 0
9358 9231 -1995 -8585 -988 -3666 -1094 6113 9172 3874 -572 -2356 -2800 106 -9520 0
4378 -1175 -3121 -9051 6479 6511 -5544 -7261 950 -3288 284 7388 -9031 536 -2961 0
-9273 8374 -4293 3294 814 5233 4210 4892 -3888 -2625 -9988 5488 -4267 -5555 -9470 0
2509 4848 -5808 -5532 -5601 -1367 -4533 -1066 5241 5245 -5477 6279 4825 9752 3724 0
-7965 -5446 -6426 7655 -6739 3906 4707 -2054 2182 -1614 -2946 -1919 2056 -6084 -9853 0
-4842 -5007 5215 4332 8716 3307 7634 369 -9585 2585 -718 8495 -6432 3338 -4233 0
7544 -111 -4890 6026 -9553 1712 -810 9728 -5376 2266 -9245 1831 184 8884 -4921 0
-5398 -3713 269 7144 6858 -712 -6940 557 -6939 7473 5056 9853 2662 3724 -6129 0
-9947 4517 -3047 -6882 9888 -4240 -4257 -4780 828 -7017 913 2215 -8010 -3292 -2761 0
-6150 8878 6865 -3116 789 9144 -4489 -233 -3575 4817 -324 9384 8199 -616 -620 0
-9527 -7081 -9967 -7062 4516 880 8417 6918 4133 -7625 -863 2891 -6172 8203 -9633 0
4383 -6697 -1412 -1427 -8751 -8720 632 -6484 8768 -7341 -5249 1830 -9118 8036 -7379 0
-6371 8982 -8003 1499 -3971 -2216 -4831 5650 -1217 4371 7201 -5105 -8345 3673 -1181 0
3218 5465 6584 -9027 -7639 -2127 8931 1181 -6299 -6926 1673 -2630 -5321 -5797 -2039 0
-4118 -1635 -3285 7048 6697 4557 -2546 -8968 -4614 -2390 -5643 -38 -4654 -9935 -2353 0
1799 -3094 6401 2442 -5571 -4053 1125 9385 -9378 -4136 2045 7613 -7811 4361 4514 0
-5413 4641 -5350 -6490 -3937 -3471 576 -9977 8069 5821 9278 5710 -5656 8205 -233 0
-9566 -4516 -2003 -3259 4035 -2199 -1672 2051 3110 2745 -2576 -3550 2134 7787 6414 0
9196 -4027 242 1099 2835 7798 702 -858 3600 -6953 -8762 -7323 -3287 1957 -2882 0
-2268 -6688 -2449 -6006 3123 -4708 -2205 -4434 8747 7923 3198 4736 6413 -7718 -8511 0
9129 -14 -8042 8879 -4391 -2443 4671 3322 -3336 4261 8831 2867 7608 8597 -6627 0
-4167 8641 2687 -1577 -5 3446 8 -7824 6709 -3921 4099 -9819 -4287 -1741 -3416 0
-2644 8829 -6275 900 2542 132 4058 -7671 -7437 5076 -7004 376 -341 -9558 -2713 0
-8948 -8946 3926 5296 -9102 -2683 3215 4124 6743 -6560 7418 593 -6242 -1675 -2190 0
-3625 -3682 -3829 -5305 -2586 4807 5594 4428 4578 3726 1822 8625 -90 5314 3345 0
2695 -1160 -5192 -1592 -9402 5615 -7677 -6755 -5261 -7717 1733 2256 3833 3974 4733 0
-4129 -5432 -2327 9532 3739 8157 9232 -941 -6715 3857 -7369 -5261 -4717 8122 5361 0
3421 7527 2468 9840 -463 -9916 1375 2963 -1756 -8362 -5068 7951 -7498 3324 -5272 0
-460 4946 8044 -5704 -4437 -1666 1542 -7977 -6013 -4368 3564 8278 -9315 -5142 6629 0
2128 6082 5717 9243 6879 -9096 -3484 711 7992 -5533 7204 8106 -2333 -458 5768 0
3288 4274 -210 -3318 6181 2912 -570 9875 8471 4582 9802 -7052 7230 -7853 2572 0
-3512 1183 -7135 -6988 4300 1844 6727 -1375 -6784 -6226 9701 6829 1224 -1693 8803 0
2041 -5418 -9393 9744 4038 -4601 1141 6771 -2408 -7199 6426 -4961 -7436 -292 -4625 0
-2684 -9777 6870 -4902 -5774 -7217 4906 9865 3788 -3131 -8707 -9855 -9816 6586 -9742 0
1267 6755 -8922 -4797 8382 5051 1325 -3704 -4207 6979 -1593 -3513 6763 8250 -3059 0
4430 5958 2877 7587 2817 6878 737 4640 7169 2173 -5311 6253 8044 7953 7548 0
9679 -7068 36 2580 7296 5606 -4928 8243 1055 5922 -1836 -1226 -7741 2298 -70 0
-9471 -4507 -7690 7572 -3707 8532 -7807 -5151 6941 9323 1259 -1983 5779 -546 2714 0
3059 -8537 2207 534 5330 8855 6514 5059 2313 825 8361 -11 9553 3986 -8362 0
3925 780 3178 2762 -5642 6529 -8100 -6684 8587 -3225 8444 9870 3538 -7194 9631 0
1892 4487 -1360 1300 -6647 -8331 2730 -6807 -353 -3799 4286 -8783 5554 1382 4266 0
4520 1409 9249 4621 -3781 -390 -2174 3268 -5678 -1447 -3141 7596 -7645 -6354 3840 0
-2080 8624 -2651 7818 8323 -3025 -2943 -5203 -2781 -9694 -3763 873 -5925 -9309 -9094 0
8000 -1394 9800 -9491 -5679 7866 -7703 -2033 -5913 7479 -7825 1536 5900 -3709 -920 0
-4754 -4434 -8246 -5733 -6049 6327 -6413 1133 -9844 -8072 -3117 -186 -1800 -8935 6523 0
-4439 -6936 -2283 -4144 8380 8162 5293 -7650 -4527 8268 -1238 3924 1842 -2463 3029 0
-6289 4722 -294 -5203 6406 -4045 7866 -8034 8224 -946 -5640 3117 4726 -5108 -4840 0
-831 2365 -57 4366 4756 2991 -6219 -1183 1392 257 133 9247 -2645 8870 -5164 0
-4861 9808 3710 8446 9690 -4685 2616 -6678 4928 -2928 -2409 2816 8461 -9701 6863 0
6322 -6957 5182 8078 -145 -2668 9557 -2756 -3023 3129 5404 -2419 -2422 6307 1932 0
6722 -8039 -4062 -3624 -8329 -8624 5763 304 -3160 -1934 7458 -2624 7288 -3585 -6198 0
-595 7653 -273 5830 -9226 -8655 -2160 7609 -9034 -5538 7647 -6885 -1430 1572 -4739 0
6439 6122 1830 1089 522 -5639 -8724 8245 725 2233 607 6749 -7424 -4583 -980 0
-7799 18 1675 9478 -6427 -419 -1783 1656 2905 4860 9408 -8620 1972 6456 5818 0
-5748 1812 -3274 -6565 -7557 -4678 462 9517 -5270 -2631 -2727 -4900 7430 7219 -4326 0
-1833 -2772 7882 814 -3669 -6621 3392 -7127 -6063 7438 6775 -8091 -9648 2494 6416 0
4735 2582 5410 -8357 -5239 7577 3577 -6245 2368 -4866 7144 -3873 1400 4149 -9721 0
-376 -9984 -5864 5543 9567 -3470 -5582 3862 7433 -6548 -6967 -6098 9350 5010 3452 0
9034 -1624 -939 9449 8848 -6579 5782 -7680 7373 7258 8481 -7404 -8171 -7246 -320 0
7898 8154 -3908 1445 9832 -6784 8536 -775 7811 278 4049 1121 6514 -9760 -5807 0
1499 -2363 -9004 4743 -4369 5730 -7600 9226 -3729 6933 -5969 -5254 9403 -472 -8928 0
1174 -3714 5942 -629 401 9514 -3219 6880 -5848 5519 3230 6967 -7178 6769 -7459 0
-7067 -6145 -7482 6508 45 -7323 3661 7484 8153 -9674 9141 6340 5906 4431 238 0
8734 -9713 -7607 8970 -3755 -4525 439 933 5486 -9260 6959 6444 9269 3575 15 0
-3007 1463 2692 -1240 8957 -3404 -8102 -5851 -7301 2796 4795 8693 2772 -9290 7752 0
-9215 7229 6428 6122 -9517 -4650 -3147 8246 -308 5002 -2772 7494 2974 127 -8114 0
4440 5544 -9543 -6709 -7221 6415 3639 4417 37 -6799 6938 -309 3982 1017 6257 0
8937 8695 -3858 36 -4139 972 6378 -9813 -8481 -9560 3736 -9108 -4668 -9660 1329 0
-7932 1972 -9864 6556 -1864 1017 -2166 155 -4874 9524 9089 8508 -345 -9481 5860 0
5821 -9309 356 -9441 -2151 4623 4032 -1008 -9071 -2252 -219 1853 -5659 -6948 -1187 0
-1844 -7879 -588 -4100 -24 -2725 2306 -2173 65 -3214 4897 -8812 -1930 5008 2050 0
8437 -3588 -9986 -7003 -2368 7163 1320 -2519 -4782 4962 -8522 -1655 5253 -3656 4400 0
-3415 3183 -4105 8448 6773 -3677 -2664 9112 2350 -4071 -4897 4352 4160 -9154 -3410 0
-185 5854 -887 -1603 8615 8606 8244 -7164 -5572 -2108 -3872 1496 5879 -494 665 0
552 -1032 -6318 4414 -9181 7172 721 4449 158 -5927 6869 4607 743 -8916 5704 0
436 -6854 9408 5182 1869 -1842 -3621 2194 2656 -8695 -7696 6280 -5316 -2014 7083 0
-4555 2288 4806 -703 9348 5263 -853 -2893 -9639 4908 5450 -568 -3293 2922 1191 0
2839 415 -9387 -5602 469 -2424 -2706 9482 3004 -4211 -9077 5851 -9682 3166 -9514 0
-1074 2951 -4580 -9196 -8391 1198 9455 -6137 -5188 -3934 6424 -4787 2797 1774 7111 0
-7263 4693 4861 61 -7084 5316 620 -1670 6842 6480 -6981 2580 -2082 6593 4685 0
-9297 -6074 1614 6823 -4298 8772 -2192 1383 3348 1636 8532 4383 -5519 1965 -4891 0
-2520 -6911 -8873 -3015 7612 -4899 -9987 699 -218 340 1681 4233 8553 -7155 7278 0
6193 8954 9913 1541 8459 -918 8509 2444 -4995 -9625 2688 4710 -5852 4318 -2511 0
-7174 -759 910 -9613 -187 -8965 -8372 -718 -1315 8371 5570 3634 -3963 -274 -7156 0
800 8072 -2388 -9776 5240 -8957 -9245 9039 415 3224 -1256 554 -6526 1313 -860 0
-8227 8406 -3622 6919 7723 -8242 -3503 -9792 -154 -5389 1784 8799 -3259 -5153 -7943 0
9738 3381 3165 6959 -9692 3316 -3284 8092 3189 -6054 7453 -2952 5305 -905 5406 0
-8866 -9212 9455 57 507 -7546 -5982 6196 6454 -1406 -4688 4346 9401 2456 4404 0
392 9607 1351 -5272 -1181 -8532 -1697 -8578 -881 2074 -682 -9343 3973 -7044 1323 0
-7857 -9964 -6674 -8432 -7883 -3958 -4748 -2000 -388 -7949 5180 6083 -8036 7631 3513 0
-3518 -8301 -352 -482 -9866 -3951 5252 -3359 -5572 -3902 -9222 -7140 -5427 9770 2399 0
-1450 3614 6637 4817 -5118 -4571 -5150 9020 -4588 -670 -494 7165 -1775 -1873 7698 0
2502 87 3516 -2428 2775 -863 4728 -6927 -7415 -4375 2558 -4526 -3875 -8981 -1727 0
-1570 -4343 -2477 388 3369 6339 -5590 2630 6085 -7259 8433 6199 -7036 769 8409 0
7846 -803 -9544 -1949 9231 -4809 3843 -7270 -5158 -4855 -5890 -631 -3731 -258 7132 0
-1484 -5246 -5626 1997 -5994 6914 6352 3068 -5021 -957 -1179 908 904 948 2021 0
-4950 235 -1273 -9376 4248 -5201 -1324 6803 -6031 4211 6227 3162 -5816 9978 -7198 0
4689 -4060 3808 -433 9517 2808 7671 -6619 5425 -6243 5355 6557 9728 1629 2940 0
4388 -7005 2725 -5594 -6666 4712 -9128 6684 4920 8537 -4588 2797 6987 1920 -2351 0
-8177 -3378 -1383 -3266 8866 3010 7246 9384 4612 9792 -9664 -5782 -1100 9928 -4073 0
-5615 -2142 -1592 6963 2528 -3673 6107 -573 -4572 8315 8970 -2482 8687 8366 -5651 0
7126 70 -9642 -932 1825 6887 2156 6655 -3297 9017 8528 562 -6798 5407 2365 0
-9146 -4725 2225 -63 -5893 -5526 -7926 -388 -7263 -8857 -5363 4510 -4066 -3339 1041 0
296 -8446 -2587 -4396 9258 7916 -1614 9910 1476 4390 5571 -9008 4986 -5311 6365 0
8559 -8519 1509 728 -2235 -775 -1587 2539 6950 -6930 -9841 7672 2581 -5113 -4797 0
5485 -9457 -1633 6675 9512 -4060 9624 -1182 -101 9838 -4145 8219 2221 5661 1411 0
8807 -4400 5450 -9048 1747 -5099 78 1314 2501 -3177 5739 -4368 -8155 -491 8935 0
4564 8384 -6807 2617 -9210 7569 -7158 -4771 -9969 -2539 5019 -603 9652 522 8510 0
1313 168 -9744 2954 -654 -9286 -5376 8151 -8833 -7647 -8155 -4276 -8039 -5645 -1458 0
-6051 -5524 -531 -7038 7849 1164 7634 2202 -4893 7108 3183 -8417 -1714 -5270 1624 0
-822 9257 7466 -6332 4921 -6670 7022 5478 -456 -6664 -9484 -9247 -521 -5939 -2550 0
-3592 -1630 3185 -6133 -9777 3493 -7921 2931 1421 -9246 -526 9736 1620 -2128 -323 0
-5524 -3266 -9111 7827 4568 7389 -4451 7871 9079 -6753 -1893 -5882 -8569 -5748 2445 0
-3461 -2302 5813 4567 7344 -1138 -9449 -941 -8293 -7985 -5827 6518 1425 7404 3239 0
3180 -5770 -883 -5624 -6204 -8619 7959 -9912 5524 -4831 8046 -1233 9964 5017 -4508 0
309 -4385 -274 6392 7189 -5971 1848 5352 1777 -6322 885 5469 -8010 -4714 4845 0
1782 -2386 -3331 403 431 7455 3519 4918 9267 9037 4933 3597 -2654 -9446 -4889 0
-1502 1171 2529 2185 -3369 433 -450 2787 9086 -1244 -9897 7411 -8832 -6767 5004 0
5193 -1503 5875 5993 3988 7905 8486 4927 -495 4086 949 287 -3809 8207 3335 0
6335 9602 3051 4694 -5386 -4104 506 -9782 8629 -8855 -7457 1241 7617 7744 -1817 0
2368 -2559 4398 5077 -4353 4527 4596 1020 -7830 -696 -4199 -6555 -7124 2885 -2233 0
-164 1719 -5469 4333 6507 -3775 8873 -3779 483 7603 6538 -5751 8375 -8899 5748 0
-3973 468 -5783 -912 9014 545 7914 -4511 -9984 4991 -5421 2418 -4334 -7374 -9550 0
-1650 -9838 -9573 8441 2933 1471 -6539 9627 2002 -5514 3655 9662 -7439 3912 -3219 0
8245 -7897 -9385 -5868 -1651 7783 -7003 8294 5591 8304 -3384 689 170 987 -1198 0
-483 -8475 4415 -4740 1835 4614 5467 4109 6040 280 4585 1447 6582 -6144 -2328 0
3019 4815 -5982 -2572 -7848 -4481 -7761 1798 1553 -132 -6999 -5592 9183 9086 6779 0
524 -5463 7986 7397 3169 368 3100 9657 -1810 426 2034 -3107 -8244 6792 -9044 0
-7836 -4431 -5011 -8416 -4553 -6861 9279 -8271 364 -617 8383 867 5623 953 8656 0
1889 -5467 9185 132 50 -2644 -2410 7010 -7189 -2852 -3560 9836 4355 -5692 8904 0
1042 8049 271 -9274 -7319 8339 5716 -1531 -5830 -4072 -759 -7409 2864 6834 -2777 0
-5070 -1009 2915 2303 -2557 -7561 2222 7591 8087 9028 9381 2458 -8926 213 -2523 0
-1867 -8937 -9390 6630 4591 -3358 -1752 1089 2770 -7575 4214 6065 5924 6701 1635 0
7394 -7555 -6339 -6 -2478 3923 2389 -3144 8448 -6855 -1946 -3131 3567 4065 1272 0
335 849 7578 6642 2341 2280 -9834 -3312 -394 1852 -738 -6618 -291 8045 -9516 0
-3547 9047 -8048 1175 4863 3245 -3851 -4770 -2753 3509 -5599 -3855 5546 237 5855 0
-1354 2125 6678 -393 7523 -1258 -4880 -8104 -4237 3248 -3221 870 3580 -5427 2462 0
9242 -2202 8053 2938 5704 -414 3299 -12 -7480 -6543 8577 -5984 -5923 -9265 4074 0
-7098 1147 3068 1879 -5008 6550 7859 1589 -3519 -5597 -89 6057 -2081 -251 -7403 0
-4590 6151 -8540 7010 -5245 330 -3786 9117 -874 9365 8446 4113 5278 1367 3120 0
-2604 -5524 4011 2165 -1732 -5280 -6813 9274 -6511 6365 4544 1544 -7057 2997 -9138 0
-2995 -3628 6462 -4471 8666 6869 1762 -1976 8002 3286 90 -944 552 -542 2843 0
-8388 5222 -8641 5702 -1878 -2531 1711 8469 8159 310 6726 -1362 -5097 3348 -4767 0
2151 -218 -1661 9920 2431 8195 -3561 -2364 -5358 2785 -5580 -7025 6509 2350 644 0
-6033 1837 7688 5827 -5258 4000 3583 1088 7127 -9814 -1252 4939 9171 2408 5443 0
8672 -485 -3341 2942 -1548 9982 9041 -2936 -938 -3547 5974 -6399 -5042 7651 -3118 0
9499 6971 2603 -8819 -8290 -3574 -9527 -4442 -5840 77 6482 2604 -4397 -9325 -8223 0
808 5206 8167 6004 -8484 -1269 7292 5314 -3530 -104 -9295 -709 -3850 -8981 4175 0
-3693 6176 -6679 4156 4294 -1123 -9197 1082 -9335 -2642 7632 7555 -9443 -5038 -9968 0
-5526 -5233 -5889 5952 2794 -884 8214 1175 -6473 -5248 9790 -3067 7084 6872 8862 0
2173 -7937 5518 5115 -219 5746 8669 1664 -6644 -4530 -9240 7930 -5907 -7340 -992 0
-1072 5843 9191 -977 -4204 3573 1823 7144 3765 3915 3292 -1793 8775 2647 39 0
-8510 1713 1296 -6385 -207 6083 -7540 -9158 9046 -9101 3046 8564 4682 -8385 3016 0
-2893 4540 1277 -251 8116 -7108 8104 -9535 -9800 919 709 9648 9121 -6276 -2447 0
5830 -9051 -7701 -539 -7421 7727 -4543 -5694 3043 3052 -4001 -4061 8371 2967 2880 0
5161 -4508 7168 -6955 -7667 2417 4938 9911 -8375 9085 5062 4622 -1389 -9336 4932 0
-6067 4155 1369 -6714 6076 -4349 5136 2175 -9528 2313 -4587 1045 -6664 9557 6306 0
-6876 -9016 2256 -2163 -4741 -6820 -6284 3941 -5221 4840 -1868 1515 -8922 8574 -6306 0
-549 -7416 -1798 6196 4706 6726 7001 -9207 9246 -1204 4507 5587 -5880 4823 2760 0
2719 4428 2579 3988 -9866 1229 -3513 -5069 -3706 4809 -2762 8412 -1531 5719 -8879 0
-1470 8567 -1101 -7749 6692 6740 -8616 3004 388 -1057 -300 1536 265 5719 1439 0
-181 -7048 6906 -2404 297 -9358 870 2724 2543 7540 6694 -4291 -5304 -9109 -3571 0
2220 -9698 7368 3665 -9540 -8336 -4838 8826 9585 4944 -98 5851 3999 -7277 -5396 0
-6900 5284 -1180 9775 -9785 -8706 -1521 7145 -8073 901 1946 8849 -8006 -8695 -4908 0
8141 2563 -4978 7525 -8272 3413 8913 5388 9228 -3439 -7365 -9075 -224 -1572 2878 0
-6570 -9159 2782 9318 9011 -5919 120 -1987 -4612 9132 -7541 -394 1332 -9004 7435 0
-5302 1424 -7553 361 -2160 -1248 -4096 79 -3044 -8775 -332 -7457 8946 5167 5011 0
6154 -8126 -4080 5076 -9727 1698 733 5943 9650 -4919 4561 -1406 7012 -5197 5825 0
-8754 -495 6976 -9387 2676 -2722 8448 -7932 1965 7435 5883 6876 3612 4538 8119 0
2174 -2686 -6928 -5983 -4888 -3878 9877 -5819 -7262 -3972 -9802 -1667 8975 -3154 -7535 0
9520 -4503 -4963 -8383 -7557 6644 -500 2823 9384 -3753 8944 -1310 -1645 3806 997 0
5929 -1956 -3426 9953 948 737 1842 -7301 -2875 -8145 7592 -7628 -6826 -4311 -6589 0
-6589 -2001 -5734 -9624 -9002 4571 7632 5259 5116 -8795 -3277 -7594 1061 1239 4715 0
-5146 9298 6489 -4275 -1558 -6705 -7850 -2480 -815 1645 -5779 -3004 -8797 -3991 -6205 0
-1475 -8786 696 928 2306 6897 -7534 7519 -8799 -769 8404 376 8358 -6202 2193 0
6541 -6256 3690 -2090 8242 7446 5608 -181 6461 1951 4078 1217 1206 -4321 -3396 0
3633 6152 761 4605 3218 4637 -5877 9200 2617 -4101 -180 -1243 -9555 7558 1732 0
-88 -9980 5619 8225 -6894 3764 4186 -5291 -1166 -6005 6219 -9684 9315 -3359 -3031 0
7231 -6828 -3254 -153 2373 4297 2314 -6300 -7094 5886 3020 -5420 3557 -8218 9477 0
-9785 -3959 -9808 6444 6245 -5241 3849 -1830 -6510 1092 2342 -6495 4902 836 -407 0
-5666 -4373 -6140 9443 -1065 -2100 -1644 -797 -5140 -5712 -384 1222 -3033 -3234 8205 0
-5584 7294 -1806 -3990 8498 -8940 2899 -2210 34 1427 2719 1342 4048 8922 -4237 0
6287 -1954 9456 841 6324 -647 -3036 -6210 -5626 1076 -966 7411 9095 -8407 -9191 0
1297 9670 7456 -7631 1027 9440 -3652 7986 5911 -2681 -9838 -7195 -4305 -3053 -6576 0
-1698 -9082 -2842 -9609 8027 8643 5443 -4212 -6478 -6418 9741 9536 -3917 -2215 7832 0
8855 -6625 -9070 7414 -3386 -2079 -334 9151 3888 -9461 9620 -9382 -8752 8008 6925 0
828 4229 9616 5647 -4371 1395 -1561 -1783 -862 4681 -8564 2402 453 8691 4042 0
6409 -9236 6330 -8069 5806 9375 -4730 6296 -4122 -3045 -4490 529 -1682 -7437 6126 0
6539 -1337 -4776 835 -4507 -2313 -2523 -1229 -1252 7012 -2452 -8157 -7672 -5867 -4316 0
1887 -2761 3726 -8904 5766 -6288 1894 891 1563 7297 -6519 6799 8890 6851 -1503 0
-2267 744 3690 9193 4612 -2035 -3560 -8608 -4579 8115 -4838 3025 7695 8104 -5191 0
-1376 9952 -7001 -4485 -9481 9096 -356 -433 6051 6458 -5822 -1391 1848 3576 -8248 0
8885 -8407 6698 -5050 -7316 -8043 5174 -9333 3865 7085 8310 6166 -406 5508 -6866 0
4114 5347 9677 5841 787 -5440 1625 3827 -5507 4789 -8665 -6129 -5921 3887 800 0
7618 -995 -9889 -5582 -1677 -5868 -9854 8195 4003 -4905 8206 152 6311 3755 1434 0
-302 -4128 2792 -755 3586 -1400 -7645 -6732 -9854 -433 1531 -5333 -1917 -526 -2019 0
-7957 -9622 1030 9409 -6101 -1932 -3915 -2408 1875 -152 -8643 7952 -4199 -4708 4597 0
-9584 -562 -4825 8380 -1284 9755 9649 5566 -8459 -5294 -6708 2467 -5539 -6741 -2693 0
-197 8871 -7207 -1225 2916 5951 -3492 385 -1059 6047 -6309 6469 8454 -4706 7115 0
-5858 -2035 3477 -8373 -1156 9332 7949 -3512 453 1550 -3705 -100 -4906 2032 556 0
209 -7457 -7558 -8847 1011 -6289 3634 646 2888 -88 -9253 -5895 643 -7059 5596 0
113 -7050 -2258 7163 -4094 -2085 -1281 2116 1898 6246 -6243 1696 -9119 -2430 4327 0
8500 9590 -7469 -5874 8525 7902 -6553 674 5768 5081 -2976 1149 -9195 -6962 4948 0
1066 -2546 2240 4322 3924 8171 8903 3059 -8076 -7631 -4333 -4289 6494 5396 1771 0
-696 -1654 -6180 -9141 -7472 9381 -7992 2861 -8922 3559 4378 8515 6163 -9437 3347 0
2670 1701 5466 3 619 8075 -1897 7143 5532 -5970 -6845 -7977 -9234 3911 -1129 0
4519 -4664 5599 -9976 -2321 8756 -6304 4531 -6567 3216 6908 6614 7676 -783 -3310 0
-7289 -6462 -1565 7160 7260 -9296 1326 -6005 8365 -9675 2784 9883 -6754 -7107 -516 0
5181 -1958 -1656 -2479 6792 -3698 436 -2229 -3226 -5882 1892 6560 2655 5721 -9649 0
-275 -1706 -8352 -688 -8503 -806 1902 -8247 -2399 9346 5649 -6892 -4802 3313 7598 0
-2272 1139 7505 5232 -7101 6015 -8773 8651 -6022 -7426 4697 -6169 9853 1846 -2660 0
8584 906 -8118 7788 2150 -904 6693 2789 2211 -6318 -8991 -374 -8133 8247 7529 0
1863 4608 7159 -8003 7390 -8372 -7422 -9452 -2165 9923 -9106 -9610 -9470 662 629 0
6562 1697 -2355 -4856 1321 -8793 5177 -7655 -8572 -8414 4270 787 -583 7479 -1653 0
5520 6085 6295 929 2370 -2738 -3296 6123 -4567 9254 -4615 8308 -1059 -600 3478 0
1905 -8812 9309 -7609 7215 -5702 8617 -331 7045 4602 -7892 -8455 -9601 -1068 5986 0
-795 8921 -6397 -6025 -8293 5304 4233 5443 6164 -333 -2569 2257 -4887 -6258 3482 0
-329 -8097 -3189 6569 -6781 6470 9472 7795 670 -4264 7624 -1982 225 -5646 2747 0
9258 5143 -9935 -3610 9516 -7062 3569 3339 528 2702 1167 5894 577 -8168 9103 0
-3252 5365 1301 -1508 -9498 9168 -1679 3947 4908 -5184 -3668 -7301 7375 6692 -6964 0
-3380 -1702 -9717 -4592 -4603 -3111 4761 2275 6636 7674 -3185 6258 3139 6013 -4356 0
605 2676 9402 -6253 -9315 5049 5987 -4649 -7146 -1956 -2835 3407 7673 -1175 -6514 0
5102 5467 3071 4963 -7301 -7938 -7901 9386 564 3034 7019 -2254 1804 3921 345 0
3727 9149 -8596 -5100 1704 8003 -2586 -3630 -8964 5680 -2591 -2539 3452 -6484 -7834 0
-74 -8783 4575 1621 1709 5175 8647 -6416 -3327 -8281 -4768 -2596 -1478 9524 5648 0
7052 -1543 6929 208 284 945 5647 -8929 -2719 -6971 -6154 1983 -4794 6605 5046 0
7538 -8107 8486 -6958 4660 2991 -1809 -4046 128 4714 5577 2695 -1459 -354 -7358 0
6468 7962 6014 -1920 1268 -282 -9666 2945 3712 -3469 -9165 -6421 5842 5014 4267 0
-9490 -5714 -6520 4087 9112 5871 1799 6460 6377 8647 -9659 3600 -2481 5409 2655 0
7484 -7375 -636 -7178 -3348 -9067 -7183 821 7391 -9158 -4769 8866 -7871 213 9142 0
-643 -3016 4542 -9017 -5740 -4541 -4526 -3478 -4434 -1371 7978 -7275 651 -3646 -3905 0
1790 5821 9566 -9300 3697 1300 -2224 4736 -4292 4298 2044 -9928 1081 2204 7389 0
810 4956 -9171 7744 -7499 -2741 -1732 5750 -4603 -5234 3038 -4775 5696 6549 -3326 0
-3228 866 -9969 5831 3712 -6480 6332 -3843 -9834 9371 4834 3146 5762 -2642 1219 0
-9739 -843 -8947 -9892 1158 -6369 6024 -4413 -4225 9888 3297 -4819 9731 -711 2029 0
-8623 -545 2924 8658 -9218 2065 -8239 2712 -6917 8354 -4082 6512 4130 4870 -1188 0
1587 -1383 -7357 -2720 -2642 -5234 7463 -5027 4579 -4199 4759 1688 5750 -2597 -5970 0
7008 3302 -2902 2092 -162 -3734 7533 5655 -4160 6408 3903 9599 385 -2825 5980 0
637 -799 7403 9717 -7853 -3789 -1739 -7944 3747 -8050 1765 -706 -432 5291 -5456 0
-137 3456 1088 -2377 -6979 4279 -8749 -4740 3812 5686 -1699 -2361 840 -8337 2195 0
-8197 -3233 7714 -3581 -8841 6396 9135 14 400 -1882 2737 8316 -831 9802 3753 0
-2730 -9941 3640 2980 -6544 1485 3406 1805 4954 5782 -526 9144 -1732 -7362 -2185 0
-5488 5174 -316 -5281 4831 9631 -9486 -7652 1889 3737 -1622 -2351 8692 1120 948 0
-975 -2856 -8573 7696 -296 6393 3138 1396 8976 -3965 -383 -513 9821 -6146 -9888 0
-6318 -9463 3812 4137 -7764 9351 -165 -8166 5258 -5537 -619 7824 -1535 8999 5812 0
6139 -7527 -5319 3482 8015 929 6478 -7641 7822 -2765 689 -6819 -3539 3074 -8510 0
-1710 -9606 -3928 8262 -3818 -5586 1259 -6709 2634 -8766 -8444 -7022 -2323 7742 8329 0
-3552 -7656 -3480 6946 -5365 9987 -1468 -357 -1383 9392 5237 2859 2902 -5492 9835 0
9752 6918 -6833 3544 -9486 325 3058 9703 1849 -6812 -4176 -331 2985 -3273 9281 0
923 -9163 -5114 2243 -3770 -125 847 -3015 -7480 8019 6316 -6184 -301 -5621 4118 0
-9241 -3324 6214 8076 -8490 8530 -9938 -6158 142 -9150 -2219 -8790 5630 -5912 5219 0
5762 -1596 -8098 -1950 3103 638 -814 1015 557 6632 375 903 9543 9145 -709 0
4731 -3444 -4260 4012 -2149 -1600 7879 1840 7289 -2907 -1502 -6458 -6654 4278 -6440 0
-9139 -1748 -6629 9567 7980 -2949 -2776 -3442 8849 967 4262 -4788 2867 -318 1250 0
6325 9722 5019 -7047 3170 7043 -2723 -5265 -7773 -181 -8063 -1299 -937 8414 7243 0
3721 2002 807 -6279 4140 -5337 3636 1898 3444 3247 -7615 3388 7116 3301 -209 0
6840 3374 2253 -6812 -9717 -2501 9373 2758 745 2211 -885 -6141 -4866 -2424 4110 0
-1902 1921 3340 934 747 -137 -8489 -8477 8079 -9220 -6278 -940 3322 5163 -3984 0
-4079 7037 7848 4090 5400 -7621 -9956 -9926 1803 9656 6157 -5969 2623 -3717 2303 0
-6091 -4931 2527 783 -5148 -675 1092 5769 -6024 -2539 1980 2244 7823 4000 9469 0
3811 4295 -4366 8985 8079 8895 -8526 -1308 6243 -1757 -5681 4372 5743 2589 6356 0
-4393 1106 7737 6266 6009 -6543 1423 -6932 -3236 -6071 6580 3132 746 -7764 -642 0
-757 5802 8235 -8933 -80 8422 2625 4635 6297 -662 -3707 3296 4388 4009 8554 0
-8322 -4406 -8146 -6043 2971 808 -2852 5202 6931 -8100 -9655 7741 9243 -8197 -5475 0
-7428 2792 -3202 -5230 -7787 4084 -1049 4250 2027 -5936 -6104 5411 3032 -7152 7135 0
-5791 5487 -3755 -9418 -4382 6103 -1126 -7153 -7612 -6470 -2336 2285 -719 9726 -5754 0
-6063 -4685 5425 9493 2640 8432 6473 999 -2094 995 7439 2742 8079 -1904 -5789 0
5132 -9812 9045 -7991 -2144 -1110 9292 -1287 -2299 6724 3191 9906 9235 -1651 5338 0
9037 457 -1173 1536 7606 -5025 291 -4995 -9821 3544 1136 1976 9551 -9079 -7161 0
6287 -3216 -9284 -1219 9037 5188 -1671 -8394 8403 -4936 1010 7994 -461 4722 -5361 0
-9950 8855 8677 -1284 1714 9865 554 2868 -7882 4393 -6 231 -7479 7923 -4832 0
-8289 1127 5393 7914 4424 -6856 -1863 -7621 9497 5746 -9378 7466 -8825 -3697 3664 0
1703 8640 -5622 4414 -4463 -4601 2383 -4749 3382 2688 3572 -8001 946 -1545 -6346 0
-27 -379 -7487 5606 8338 -928 -9483 5510 1034 -6787 -1847 4165 1251 5441 1261 0
8549 557 -1168 -5454 -3592 -9139 -6942 -4882 -5549 -9755 -3738 -5807 -8956 -4794 -1226 0
6184 -9295 646 1533 -3918 5307 -969 -405 -4718 505 989 4289 -6377 6781 744 0
-7065 -8838 -574 -449 -1640 -7292 2578 -3845 852 5871 -5481 -6383 5212 -3847 -3849 0
-463 5573 4324 -6623 -3903 -9326 -4904 -1256 1859 -2279 908 -5219 4682 2381 -7160 0
-5334 -7029 4217 9818 -3865 5536 -825 -187 -420 -6277 -1848 -4674 7057 -6029 5742 0
-861 7621 -8554 -4680 -6388 4355 4906 2023 8737 378 -1330 -1686 818 -1499 -4907 0
-5264 7979 -6299 -5966 5941 -485 424 -1981 -4783 -1208 2632 6612 -7172 -3552 7945 0
-8607 -351 -1966 -3793 -9512 -9030 7945 -6428 -4964 -462 -2595 6887 -676 95 -3011 0
591 8594 -4548 2156 457 1613 8216 508 3291 -3166 2552 -2732 7026 54 -9587 0
-7574 3714 3344 5487 1856 8745 972 3047 -891 2398 8849 9140 -4494 5332 3413 0
501 9083 2029 3427 -5162 -208 -2052 9755 5523 7627 -405 4192 5004 -1154 6575 0
3179 8889 -6358 -4508 -5350 -6980 3958 8592 -6579 2124 -6450 8804 -2950 -1040 -6470 0
-1144 7883 -8166 1453 -7975 881 9074 -9053 7618 3988 3131 -8099 5398 1478 2644 0
7412 3168 -1789 -3813 794 -6451 6737 -5342 -5971 -8409 2083 8111 -4589 -4996 -6671 0
-2848 9940 1177 -7718 -3045 -1673 6783 -3843 -8522 1731 6093 2878 -9610 -107 2000 0
-5107 9446 -9508 7392 -2311 -9146 1542 -650 -4929 -1656 -1630 1723 9559 -4700 1583 0
4004 -7728 5547 1768 827 -9722 2768 8121 5642 -4070 5583 3693 4369 4509 7207 0
-3738 7089 3544 -7649 -6288 -5039 3029 740 2645 -2944 6713 -7347 -5977 -6398 -5401 0
-3274 7377 -1440 -9544 1902 -9322 9156 2996 -9302 5774 6443 1947 -3764 7708 6830 0
-6847 6026 8744 6756 4672 211 -1259 -3393 5920 5797 3433 -6777 2238 1912 -776 0
7358 8510 2430 -5188 -5717 9556 -293 5564 -7312 -9443 -5734 9528 -4111 6837 2745 0
-3304 -7886 5615 -720 9167 -6327 8978 6011 -4155 -2309 3825 1479 -2100 -5366 -4826 0
9172 6419 -4248 -4230 4071 2111 9056 8569 7310 -8936 -9271 -9247 1707 -6206 -715 0
1030 -1164 6545 7915 -310 -2422 34 7004 -2613 1364 -4428 -8648 -6653 8685 2619 0
5405 -8850 9604 -1138 -9786 -6038 6112 -9532 -2093 5409 -35 4851 1822 5549 -7271 0
7259 -7585 4866 3199 6845 8342 571 -3574 -7465 -397 -7107 -2497 3940 68 9524 0
1793 -1236 6649 6933 -7201 3985 2168 -2570 7163 4071 7728 -4568 -9595 -9176 -5335 0
6061 -8914 3746 8517 7031 -3419 -4114 -3572 -8143 762 -7651 -1736 -9559 -5813 9944 0
6021 4467 -9632 607 312 -4278 3294 -2255 -9066 2384 -8521 -4947 4606 -536 -6451 0
9257 -4478 8195 -7536 5522 3619 1130 8522 1686 -6245 4343 -8915 -4297 -323 -4947 0
-5183 7048 -5046 -8235 -722 -2288 6082 -7739 5048 -2863 -4043 -7627 -3397 -2570 -9163 0
6247 7109 -5875 6082 -9032 -9554 -1357 3322 3550 8995 -3223 8630 6662 6313 6383 0
8380 -9351 -7323 4569 -3326 1247 -4073 -1864 3891 499 -1868 -2154 -2973 -4922 1434 0
-8186 3059 3811 2532 6366 9528 -6093 -3987 5029 -4574 1667 -7211 412 4706 2049 0
2962 -1119 5015 -5070 -818 -2644 -9794 -9752 5717 1028 5921 8824 -3429 9908 -6128 0
7287 -1866 4572 3275 4259 -916 -5993 3102 -4739 -846 7695 2844 -9508 1775 7016 0
-6823 5273 -9753 -2085 -2330 6947 -3877 8430 1905 -5511 -8692 2823 7141 7216 8502 0
2877 4141 2927 -2078 9068 -4091 -2806 -6825 5026 7585 -2932 -1546 -2513 3326 8775 0
6030 -3620 3931 2076 1810 -2057 -4047 9094 5251 5238 8292 3506 -739 401 7722 0
-1217 -8808 -8012 7502 -133 -242 6073 4354 6719 9526 2581 3368 -785 5345 9934 0
-5568 -2019 3176 8501 8678 -8759 -2487 -808 7258 -2218 -493 -4641 9422 8959 9994 0
2202 4470 1415 9672 -4063 -4207 4971 -5810 5104 -1465 3600 -7416 -5155 -1981 589 0
-351 -8580 -4706 1012 831 1450 4258 108 -9765 -4316 -5547 6663 4448 -9005 422 0
-379 5393 -6815 8243 -4249 983 -690 4992 -5201 -2120 -5796 -4497 4490 186 -8738 0
3858 965 477 7730 2377 -8898 -502 9217 9162 -5589 -3422 -5347 9808 2023 -6352 0
8012 -3304 2389 -2399 -3330 5407 -5922 2611 -7344 3024 -9103 8538 6773 -1888 1844 0
8594 -4077 -4273 452 -8712 -7795 -938 -9938 -5624 -827 -7397 -4767 -8330 -3143 4977 0
-1596 4809 -8900 -1878 -5060 -3199 597 8739 5859 -8221 7463 2368 -1614 -3637 -2709 0
4634 -2395 5578 8321 780 -7950 -4107 -1480 -9146 -7377 -363 -8987 -393 -7438 -569 0
-1556 -3599 9681 -9674 7320 -5454 6712 3764 -1632 4635 2731 3688 -4141 8234 -4017 0
-1598 2764 -2264 8835 6330 5493 574 -8980 9614 6095 -1481 3836 2496 -8720 -693 0
-5167 8242 7949 -7723 -5387 4032 -4513 -2080 -2573 -1112 5317 -994 4636 3742 -1083 0
8528 -7101 -3689 1942 9765 9906 -4679 -4422 1252 -4977 6502 1733 4200 -1158 4978 0
6659 -7464 172 -4728 6932 -7663 -1716 5806 2210 1356 6991 2699 -5967 -5179 8374 0
1983 -3035 -9082 3459 -7101 -2729 -8521 26 2566 2344 5657 8351 7905 4513 -2374 0
7889 5867 5834 -9405 -8109 -8679 -159 -2538 -5074 -5637 -3440 -8327 9093 -4887 9097 0
-9656 -8574 -7077 -8017 7679 -4153 4114 1307 -7355 5835 1429 -1955 -383 -2352 1800 0
6554 7397 -437 -5638 -2546 -4370 -5982 3449 3195 1506 5249 1415 -2690 -2986 -1106 0
-7904 9163 -3557 9818 -5543 6834 3075 3255 -3211 5416 -9268 -2763 6320 9740 1472 0
-8359 5062 2736 -9176 -4912 -8094 8292 -1307 -4954 9885 -5529 -3279 -2884 7093 -5965 0
-3117 2249 9002 -5672 -7294 9111 3626 -1491 -6315 1035 8358 -4383 -1866 8548 4839 0
9686 2861 4242 -805 1150 94 5207 -4119 -4988 -5913 -6113 3044 -2156 -8661 252 0
-2338 6695 5190 4703 9097 -937 -8473 -2785 -6331 -6019 -6090 9711 2860 157 -8784 0
820 1054 -9622 -5847 -8490 -7310 -7830 -687 690 -27 -4683 6241 -5739 -5950 9637 0
7273 9759 2891 -1417 8868 -4501 3638 -1833 -4807 6450 4746 1852 7443 -1788 -2084 0
1109 7674 3470 3076 -5152 4482 -8653 612 5436 5736 -3912 -5598 -3606 -467 5476 0
-9222 3418 6345 4989 -3570 7521 5540 8130 8295 1594 -7512 7234 7590 -6659 -8235 0
4672 -5996 5466 -5486 -4421 -7070 5623 7015 -2637 1702 -8017 -5149 -4578 -5648 5775 0
-3085 -410 7409 -5843 -193 -3888 3476 2607 -456 196 -6538 -1080 5708 -5356 -2571 0
1120 7345 9951 -1416 5289 5669 -9890 -1184 4260 5377 -4587 -1599 1005 -6716 8355 0
-1972 -6365 5536 1525 7033 -955 -5160 -826 -4921 -6748 3954 -2768 4010 -7597 7944 0
2675 -7270 20 3893 330 -1857 3203 2786 -5759 -2297 1010 -1191 5657 5824 1741 0
4984 6374 -5244 -8915 -905 -8716 1832 9566 -352 -1560 -545 7171 2681 -9170 -4897 0
-935 -7431 6255 -8804 -306 5053 8157 -2628 7657 9215 3606 -4086 4888 -2516 4488 0
633 8111 3422 4534 4441 3386 7055 -7298 -5932 9752 8249 4673 1804 4969 -5460 0
9284 -3589 4142 6123 -5146 -8829 5691 -7312 -9809 9250 -961 2165 -9855 -5122 -5021 0
9919 -6306 -4605 1589 -505 1715 -3785 2362 -5647 -6888 8051 3321 4282 5703 -6985 0
-2971 9730 -5815 -9010 -7119 3004 2678 -8620 -1619 -5229 -6186 -6047 6494 3724 -8678 0
-9910 -4247 -5607 -3090 8595 -287 5156 -8126 1336 -7184 -6821 -1588 -5398 -4790 -3567 0
-1161 4028 2754 -2762 -4084 1309 -4407 4760 -1910 2222 6961 -4810 5756 -7450 -1959 0
8799 -590 -6045 -9909 3462 -8351 -2154 3689 6435 6449 -4479 8375 901 2892 -4941 0
9018 -2930 -4027 8125 390 -3771 2607 2504 2219 -8101 -9160 -1989 -4810 -6836 -7171 0
5040 -7139 -5712 6852 4620 -9643 5047 5144 1990 6638 -9759 -7169 1163 -3616 7612 0
4952 -9714 -5354 -7687 -3556 -7605 -7902 -8623 3676 -6423 -5691 7906 4700 6129 7625 0
8656 6956 -4862 3390 434 9720 -1837 1969 -9200 3095 6897 -2610 6884 -4778 -8549 0
-6105 7536 -6104 -7122 7272 9559 8019 3046 4735 623 8608 3569 6271 -2460 -3944 0
5188 102 7859 -6115 4100 5245 9548 -506 -2257 7633 -9892 -8023 -6228 5300 -4158 0
-2945 -6331 8401 3037 -3293 -3279 -343 4131 -8530 7343 -6764 -6491 -685 267 -4246 0
-8985 1576 4008 5388 2580 -6142 9049 7420 -4507 -9599 -5994 -6494 1979 2197 3614 0
1015 7948 -3783 4398 9076 -912 1718 8718 6792 1897 -6219 -2873 -613 9714 4603 0
-5578 7435 -6421 -4040 -6285 5926 2638 9463 3860 406 -2243 -5394 -4371 -6799 8328 0
8693 6709 -762 -6904 -4708 -7054 -8161 4111 -3383 1331 8949 4689 -5216 5603 6392 0
2339 7123 1009 8814 4639 6904 -2968 2274 -3283 8349 -8306 6174 7225 -272 -9021 0
5585 8211 8638 4624 6545 6201 293 -5239 8042 5525 9933 -554 -3530 -2499 -9152 0
-8080 -8742 8848 5099 2634 5598 -6269 -7552 1240 -151 -3181 -5866 -5548 7556 -4055 0
-8843 4514 -6999 -9426 8206 -1737 -4460 6193 1831 -1121 -6430 -9322 -1460 142 1630 0
1474 -9027 -7333 5349 -184 6003 8827 2095 -5158 9217 1488 -4578 4448 -9326 2063 0
5693 5271 -7953 -3379 4382 -9228 -4775 3198 -1665 -7311 9510 -2264 -8012 -5967 9519 0
3770 8853 -2715 -2802 -4832 3280 7206 161 -5105 -9202 5712 -4380 8268 -8183 -8050 0
-2122 6432 5346 -8501 -9809 -1608 -2590 5100 -3489 -5211 5596 -7251 7282 -7586 -156 0
2889 3753 -3300 -6650 4160 8829 7937 7683 -778 100 -5687 5901 -9658 -7538 6901 0
7202 559 8934 1902 -9255 3635 -7665 -3708 180 -5635 -4825 3942 -9630 162 -8458 0
-1590 -2081 2192 9746 -832 -7985 -2918 179 5952 -1140 -296 -6981 8485 5824 -4664 0
5403 -9980 2272 -6020 1916 -2139 -8951 -5031 3727 5574 -9123 -4984 3058 6758 7047 0
6141 7432 6884 -9835 9711 -2231 -1970 7162 -3058 -8936 497 -5867 765 -6201 8716 0
-921 7181 -4147 -7568 5355 -3667 -9456 -1375 -3559 1538 -2658 -960 -8026 8054 -6271 0
6093 7414 1227 -9725 -4463 8703 -7142 4841 5633 4186 -9722 -5105 -6504 2684 9342 0
-870 -7682 8747 1498 -5940 7374 -9826 -540 3977 -4588 7084 3403 2178 2917 1597 0
-4192 6937 7791 -3837 9506 -2973 -9715 -742 5791 -5974 76 -4933 -1557 -4901 -7200 0
-9648 -4547 8661 6930 6703 -4345 -4677 1043 -2180 134 -4578 -632 -7163 2295 -4412 0
-4581 -1175 -6076 2124 -4579 -4113 8478 3901 2670 855 -400 -2862 -8495 3450 6319 0
9425 3368 -1540 -9409 3213 8895 -3768 9815 5932 4112 7530 -5122 -7071 -3174 -2883 0
8340 -4766 -751 -23 4806 2181 -2343 1320 -8627 4848 -817 6020 -264 4165 8777 0
5364 2493 937 -5871 6082 276 -3613 -5819 4434 1570 -4110 4632 9150 -3788 -6180 0
8585 -3022 733 -8738 6026 -7464 -1695 -169 -5400 -4623 -2704 -6048 2425 7160 5945 0
3552 403 5059 -8026 -4046 7741 -1098 1819 4929 -2302 -1359 -9034 3316 -4510 -2994 0
-4565 622 -675 7179 -2532 -7057 9024 -1087 -2542 -1890 -6692 -4264 -9777 -6748 8883 0
-1680 -2309 8137 -6400 9361 -2530 513 867 9037 7136 -6703 2373 1135 1131 -4229 0
6171 -1235 -7454 -5889 8001 6916 -5864 3124 9864 -990 4190 7121 -3929 -9307 7469 0
-8165 -7858 6343 -8320 -3530 4454 -4171 -5405 -9972 5776 -9521 751 6816 -1001 7591 0
1291 -9254 8593 -2808 -8966 -2244 -48 4295 831 -5136 7053 1616 -6405 4357 -3546 0
3809 -5 8357 4618 4499 -8618 8483 -5199 6468 7011 -2419 286 3935 -9494 -5533 0
7978 5351 7478 -9659 9045 3028 -1086 -1443 -1131 3566 -9829 -2986 2812 3473 -4649 0
5434 7122 -6395 8641 -4892 -3490 6849 -6730 1614 2627 -5635 -1708 -9231 -4693 -625 0
1076 -2084 3144 -9011 -4015 9505 -2831 148 -7780 -57 -7048 8570 -1180 2690 -8154 0
-7095 -9245 2705 -2963 4124 3846 -6485 6383 -2519 -5200 7688 9195 1317 -2670 -8621 0
-7889 6841 7354 4310 -8835 3513 7832 -7564 -1922 5508 -2556 7218 5365 8175 -2 0
2976 9413 -5208 5447 -1224 5115 9958 7225 8275 5957 4476 2288 -9547 31 -4517 0
3941 -705 -7720 -4210 4286 5197 -4732 -8566 -3530 -2497 -1448 -2441 9995 8083 -8997 0
348 -8846 838 4115 4461 -4051 5547 -6323 -1184 9201 3448 1741 2251 -4139 -805 0
1721 8437 1554 -6563 9195 3338 7210 -1987 -9447 3068 1166 9449 -8734 4871 6791 0
-9660 3319 1887 -1180 -2032 2113 97 3382 5488 -6867 3209 2800 9245 7186 5120 0
-4785 -7937 7302 4441 -500 6173 1803 7414 8711 4980 3353 -8899 -6676 -2630 -6806 0
8591 6301 -8883 4213 8806 -7998 7892 -8043 6291 -9547 7042 -2715 -7146 -6476 1336 0
-676 -51 -8888 5500 4383 9340 7913 -2152 7215 -7665 -7006 -2378 -8819 -1410 9229 0
7895 962 9793 -7851 6064 -8662 -2983 -2059 -8174 -721 9213 3382 -3844 -6975 -2936 0
-8733 -9816 -4517 -3324 6202 6912 5009 1143 3221 -442 -4672 2504 2675 8797 1317 0
-4928 -1449 -5756 -7291 -7580 -3388 6619 -4267 -8528 4227 -2332 -1620 -6882 2674 -1786 0
7670 -3153 -462 4996 7502 -7569 -4753 -4491 3532 3002 -3974 4123 7531 4352 5897 0
-7661 5841 4223 3275 5742 9654 4233 5815 7199 5925 1221 -3557 -1720 -4594 6931 0
-6057 1846 8672 260 4409 -6804 -2760 -6839 2707 6298 -1533 -8610 -255 -2033 -9917 0
-8193 -690 3369 -3231 -6680 9548 3200 3812 -9585 -2493 7088 5539 -1013 -9751 9313 0
-619 3492 4658 -8408 -7217 -1665 5991 -8845 463 -65 5056 2118 -7621 -9502 2957 0
-905 -9936 308 8443 1030 -4627 5524 2478 6719 -8354 1811 -9016 -4088 498 -3859 0
-2959 5213 6740 -2214 -4109 811 -2333 8649 -2903 1018 -164 5644 2819 -8259 9252 0
5614 -1916 9530 -78 -2547 5613 -1520 -7447 8476 -9454 -2781 -9080 7164 8847 2323 0
4757 8802 8247 -3433 7441 2559 7658 2914 -8348 -8685 7133 -1897 -2460 5127 -2112 0
4199 -4319 -8200 -949 9528 4610 8153 -609 8887 -3511 -9583 6886 9439 8580 9420 0
-3760 2190 -7087 -2386 -4582 7443 -8410 9863 407 -9862 520 5696 -861 4982 8759 0
8296 -4764 6042 219 9584 1200 -3653 -2859 4650 -3394 3825 5680 3900 2402 279 0
-2688 5683 3747 -1719 -3850 -6493 -6022 80 -9105 -9339 -3205 -7199 -6636 -3016 7826 0
-8829 794 9010 8208 6502 -3924 -9525 -403 -7139 -168 2391 -2646 6571 -7740 1519 0
9231 -8043 -6022 1598 6773 -747 3163 161 4864 2073 8288 147 4449 -7921 7141 0
1695 -8658 -3500 3650 9010 -8883 -17 3559 -5203 4265 5564 -4097 -1488 9221 2918 0
-5051 8868 -2691 301 308 8135 364 -3144 -7760 -5124 3724 6608 -5031 4865 -5503 0
858 -8204 -5949 1613 4684 -8375 -5982 8515 3110 -8671 4024 -8806 -7575 7233 2387 0
-1779 -2120 -2045 6172 3717 -1561 -9956 1688 2746 -7482 1101 8581 9182 4057 1307 0
9090 6198 8501 -4470 6819 8737 -6124 -1026 -5627 7780 8219 1575 -6052 2239 -2585 0
3861 -1571 12 -713 9067 3899 8223 -8977 7041 -3064 -2761 2673 -6315 9621 -4569 0
-6888 4434 -9440 -5737 -7328 -3704 8312 -1142 9048 8481 -4800 -3561 -7502 -1169 -2054 0
-5313 -9504 -2992 -231 2557 -9380 6135 -4005 -7035 9150 554 7420 -6427 -4402 4607 0
6755 7824 -4597 -413 576 -3163 -9474 8884 679 -996 441 9146 8991 -8713 8854 0
-7219 -4218 -2105 -7460 -4820 167 1790 9568 6362 -3436 5453 -1333 -2584 8756 -2382 0
5901 9894 -8722 -2995 4921 -5778 -3860 -1853 6561 -4642 6285 8757 -8684 -3182 -9936 0
-6145 3429 -8102 -5685 -8076 5538 -3445 4823 -6089 -6750 -1668 -8465 -375 9528 -4420 0
-7635 771 -9495 -3336 6702 4544 8264 3318 3144 -4151 109 4196 -9746 4442 -993 0
-322 -6654 -4596 4912 -9809 6312 7608 -4045 -4553 -1815 5785 -6861 9417 -5566 -3492 0
8635 9616 -9391 -4794 -8586 -9651 3893 -271 8289 2674 -7729 -9165 -5086 -5036 9136 0
-7224 2142 -22 9438 -1383 -8784 -6425 -643 -2951 4615 -3110 7946 -5239 -4769 7903 0
4930 -3434 -2845 8965 -4421 -2964 -9867 6950 4406 686 -3180 -4835 8512 9604 -2943 0
6857 -7133 8681 5439 -8421 2424 -6110 3055 -2669 -8344 2063 6233 7410 -7360 -3307 0
-6014 -9281 -6562 -1500 8560 -2414 3330 2384 -4625 8413 6286 -2124 -2906 -2756 5274 0
-7285 -8888 -7651 3193 -1137 -3845 7897 -6104 2098 6399 683 6603 5820 -1648 -6403 0
1807 -169 -5862 -3756 -6140 5750 1472 6866 503 1409 1312 219 -9446 7823 -6700 0
2121 -6971 2363 5603 8675 1853 -5324 4867 6240 8143 9311 -4874 -939 -5068 -7480 0
4508 -98 6884 7159 -1010 5113 430 -5863 -9618 9746 -9234 -7150 129 3274 517 0
-7570 -7517 -7223 7233 6314 -2929 -3344 9996 -9993 -2781 -7837 -9330 26 -4176 3871 0
-869 7627 80 -6655 -7291 1772 -1060 -859 -3094 7381 6592 -1575 -5152 6646 7706 0
5925 -7032 -5703 -9628 2072 -152 2968 3857 3028 371 -9146 7251 3397 4724 4794 0
-4103 7993 5319 5625 -8258 -7799 9696 -1333 -1952 9670 -9655 796 -5190 -49 -5494 0
-620 -8451 767 -6379 5584 -4005 4575 -6076 5716 5870 7655 5947 -7148 1706 5920 0
-3073 2186 -2980 4878 -5702 7676 7475 -8328 5626 8209 -4275 4436 -1823 3697 -7243 0
6463 -6014 -9389 3396 -5760 3855 9310 7609 -8844 -632 3422 -3883 -8864 -3814 3096 0
-5487 7435 3730 4698 -2899 4956 -2569 -2817 3286 6171 5834 -2743 4027 1443 -1506 0
-6140 -4598 -6662 3581 -6317 -8893 -1636 9833 -7339 1557 -3544 -6510 -1939 6285 -187 0
-1022 -3664 -56 -3403 -9236 -9030 5164 -7589 9632 9367 -1293 5844 368 3116 -8715 0
-9286 -4963 -7489 -6932 6730 1210 5242 5194 3071 -5318 -9376 907 -5613 -3125 2779 0
3307 -5212 -3879 8812 -2812 8126 5521 -6349 4952 -70 3634 2540 -134 -9099 -7545 0
3815 -5068 1902 9541 9937 6227 -7422 1337 -8789 7566 -2151 4636 4825 -8015 -1936 0
-4813 -5412 112 5977 -2552 -3054 3445 -4263 4110 -2440 4538 5941 -845 -7747 -3775 0
-7466 443 -4430 7939 -1337 8739 1424 -792 -4854 -5435 1265 -8907 -3722 6699 2401 0
-7704 -1804 5352 -5350 9081 6622 -5160 3739 -1846 4540 1728 5466 425 8819 8912 0
-1818 -9013 -9440 -906 5306 -7848 5258 234 7134 -9944 8751 -7525 -8718 7895 9198 0
-6122 -5840 -5441 7922 8662 -3014 7945 -7765 -1692 -8608 8725 -9788 5348 1056 7895 0
-3614 1662 5021 2812 -1299 -4757 8850 3648 -6813 -2459 7862 8891 7765 -3196 -5645 0
-8739 -662 3656 -5895 7221 117 1096 -1893 2043 -717 3042 -3555 8875 -7019 -1105 0
-6729 -1059 -2649 1918 -3169 1385 -7789 -5930 -4176 7498 -403 2891 902 -4882 -844 0
-6516 5544 -785 -9083 -7568 -8700 6980 -399 2912 5474 -6542 -8499 -1473 -4698 2048 0
6095 2137 -7201 -7258 338 5763 5488 -5593 5060 -7785 7017 -1756 -1708 -6562 -8418 0
4758 -7932 -6986 -3530 7398 -5742 -1306 2810 8805 8349 2119 -2611 -205 -857 -2830 0
-3493 8384 2603 -9842 -7854 6428 281 -5639 3937 7490 -9000 4126 -6532 -6014 -2805 0
-9920 -4808 7627 804 -2944 -1041 2975 1040 142 -1129 6368 -3495 551 5434 4077 0
4382 -4240 -7804 409 -2015 -1909 -1888 -7555 3804 -5042 -6494 -8479 6136 7704 -1639 0
-3612 5342 -9279 5043 4406 7519 9949 3046 2073 -7943 -7959 -2825 -4806 -6248 -9243 0
-2861 2957 -143 7242 -9391 4311 6133 1049 -2046 -7405 3798 620 -5022 -560 9512 0
4923 9614 -516 1022 -309 -2833 -8541 -9611 -4943 658 -4886 7639 -3231 4995 -1344 0
-660 -8493 7449 -8789 6245 3383 2996 4106 2578 8831 2687 4876 -288 7224 -3887 0
9341 -4174 473 1525 -2249 -1843 8138 2494 6047 -3949 -7919 -7064 -4553 8063 7125 0
6216 -1384 -8629 6856 2514 1410 -2637 -345 7148 1012 6263 -2496 -9912 8690 -2690 0
-8649 -3496 -3059 -8852 -5937 7096 8679 6377 -512 2109 -1814 -9274 6031 8792 3630 0
-4955 6589 -7653 -8165 -3690 6112 1524 4786 1017 1679 -5561 -2129 -8706 562 -8371 0
-8845 -8151 4956 2449 68 2778 6567 -8220 8654 183 -7644 -6778 -2979 -6466 544 0
-5815 7130 8769 -5243 120 2743 4007 7369 392 4912 4677 7702 -99 5350 -7545 0
-9835 -4635 7693 -1240 -3398 -781 -1871 9496 -6323 -3166 3718 -1541 -2531 7144 -9949 0
975 -2493 5579 -4604 7262 6407 4524 4078 4520 -5303 -4662 7312 -9869 -1182 -7787 0
8418 -6435 -8344 -5469 -3550 -1958 -5126 2304 -766 -1837 -5396 4233 6632 4225 3365 0
-2886 2659 5878 -2894 -8529 -2209 -6402 -4986 -2468 -5786 -6533 8871 -2189 -9074 -3738 0
7303 -119 -3251 -780 -9861 -1408 6657 5574 -697 1487 9005 9659 1032 -3116 8506 0
6003 -3008 -5360 -5270 -1241 -9944 -750 -6280 3688 4678 -2766 8690 -7110 -6584 3260 0
5230 8119 158 9962 5639 -7019 -6552 1258 -8023 5407 1062 -3489 5568 1426 1704 0
2413 176 5711 -4777 -1053 8514 3631 -7310 -3022 -2669 -7753 -2147 -4664 4558 -4913 0
3827 2941 7652 -8198 8090 -2847 -6935 6109 340 -6718 -8111 5314 5958 669 -480 0
-8597 -7775 6462 -6649 -8469 7847 1405 2508 2772 -8487 -4165 5454 -6589 6917 -4804 0
5140 4376 -1524 5886 4864 6551 -7727 8578 7700 -2127 -1260 1512 -7222 8477 5183 0
-7899 -8895 -8861 244 -6129 -8029 2225 645 -1896 2982 -4644 -2932 -3226 -5256 4783 0
-1979 2275 7249 -7855 -1271 491 1391 7185 3018 5597 930 -8632 1666 8732 -3147 0
6916 -2920 -2617 1567 3362 7220 5459 8533 -4442 -8953 8753 3693 7248 1417 5663 0
2633 1199 3596 6421 -2703 -9103 -311 560 -8696 -4333 -3594 -6240 9829 8183 -6775 0
7055 -6816 -9959 6583 -3014 -7049 -5047 -3879 1223 -2803 8960 -4027 1247 -1315 2875 0
4416 -2494 -732 5511 3705 3207 -4333 -9564 4445 -6380 -954 -6587 -509 1941 3765 0
4986 -3186 -8447 -3583 2999 -4428 2185 -3714 9318 6420 6747 8029 5761 -2301 -8194 0
9337 -9469 -4057 -2265 6312 -9712 -3561 4002 8285 -3950 4687 -8411 6689 1014 2716 0
-3397 8357 8069 -2501 6631 6564 7999 8423 -6963 5155 5604 -4652 1127 7397 -2203 0
2479 7250 -488 5859 -8434 -9425 -9144 4771 522 -4403 -8999 9802 3713 -6378 4782 0
-1101 4382 -259 -5824 3006 -4468 -3943 -225 3295 -2131 696 5425 5455 7901 8864 0
-816 -5912 -3499 7347 6224 -2183 818 9302 3842 3225 -6299 7486 4140 -9142 -2548 0
5276 -8039 715 -1635 -6876 100 -7225 897 -4445 -3689 -1881 -6351 -2054 -4925 5835 0
-6973 1746 -4154 -2829 -1727 8633 -3515 -2797 1301 -4498 6048 -7798 -3884 -4942 -8776 0
8966 -7065 -3173 -1420 -711 1343 2845 -4298 4564 347 -185 4827 -8144 -7046 -5094 0
-3036 -6288 128 1397 -2666 -55 7718 -720 5480 -7109 -5950 -6031 -3330 -3611 -3288 0
-1695 -861 3852 1991 118 398 -6115 1603 -3275 -8268 -7757 -5495 -3390 1143 4744 0
7221 9775 7825 515 -1837 4257 3262 -382 -848 3378 -6775 9939 -7984 874 1490 0
-8737 8552 6413 5737 2985 7263 -6713 4609 6206 -5924 -3234 -653 -7313 -712 -5839 0
-3130 -676 2582 -1220 -2232 -789 -1043 7914 -5755 2607 1819 -7564 -8140 8897 -949 0
-2895 -5735 -5808 -2514 -1806 -5323 -8969 -4547 5116 -7066 -8369 -194 -4137 -1644 -2812 0
9305 -1797 6265 1495 -9283 8240 -1917 9061 -1125 -7134 6717 -8116 1213 2582 391 0
9989 -8953 -6384 -3309 -6516 -5496 -488 -7781 -2542 2913 8219 -6468 -5604 -3621 1599 0
1093 2618 -8687 -9893 -9888 -4991 -6410 5999 -8335 3840 9418 6158 -355 -1493 3041 0
-6165 -7828 8256 -4080 3238 -8995 8947 -989 2548 3592 7691 -9978 733 4093 3500 0
-9330 -6714 -8300 7764 9573 402 5041 9753 -5723 4381 -2591 5845 -5493 -1123 960 0
-2868 5153 -5837 155 -821 9046 -3923 322 -8600 6631 685 4637 -9799 -9847 -8540 0
-9673 9601 -6330 -3536 -965 -7114 -5211 -7183 -1381 6855 3730 -3908 3573 3184 6020 0
1962 6636 381 -8794 -7452 4243 -2467 8552 -3062 -7770 3253 9804 5093 -5209 -2359 0
-3718 2646 4342 7860 -149 -6176 8674 -8799 8428 -8517 -1981 5935 -2722 9459 -1014 0
-5515 -4041 -9013 -7284 6475 -703 -9377 -1822 4666 -11 -1465 -3255 -7026 1072 -4030 0
7413 -383 -5120 2363 -1513 1497 8841 -4068 -3007 7370 -379 -2285 3471 8710 2940 0
957 8890 -1422 -3586 6780 -1776 9016 8409 650 7919 -8473 3543 -1223 -5650 3808 0
-7065 -9426 6541 -84 -7147 9292 8596 468 7204 2819 -7960 -4691 -3526 -8199 7587 0
9684 -4363 5967 7769 -4865 5521 6531 -6496 -3685 1625 -4872 4660 -1396 -2610 9954 0
762 -8138 3249 -8926 6641 2162 9454 8735 -1479 2448 699 7038 -9773 4 -2327 0
-4506 9851 6710 -1050 -9587 6395 8659 -7616 -4239 -5717 3098 4989 -687 -6814 7108 0
6979 -1929 -758 -7998 -9936 9681 -7683 -6253 236 8612 -2500 -5186 -5864 4560 7767 0
52 6709 8215 8685 -5181 4484 1673 9196 -1581 9732 4751 -3364 4711 -9766 -3247 0
8439 -2303 6142 -8000 5658 1291 -543 2723 1650 3605 9092 -3135 9592 -486 -6439 0
-7798 975 6884 1621 7117 -2440 6508 -858 -6900 -669 7826 -8568 7382 -3312 7954 0
-6895 -5035 -4693 8496 3868 -3316 -6587 2641 -3177 7836 -7401 -5945 -1632 2769 8430 0
-9685 -7903 -5030 9531 -7163 -8750 -970 -4873 675 8853 3859 3362 4189 -6138 3379 0
9503 3970 -2437 6675 9963 705 2826 -8025 -5346 -1882 8848 2206 1804 5417 2583 0
-3957 -66 9561 -3684 -4027 -5370 9242 -8555 -4165 6514 2065 -7677 295 4222 9371 0
-1704 -7464 -7482 5186 60 8728 -2128 8115 -726 3973 7197 -6038 344 -7055 8243 0
-1916 -6972 4715 1652 1806 9181 5840 5772 -3110 909 3358 -4462 3706 -2602 2884 0
-7155 -9354 -5984 6071 7905 324 -9 -412 9944 -4956 -4746 -2105 -6246 -4730 -7447 0
-852 1980 -2463 5928 -6475 7468 815 -5697 3823 -3934 8239 7809 4074 -3 -2894 0
-9001 1466 -9853 6581 -9256 -3810 3054 1073 -9647 820 -7600 5032 8764 7785 -1688 0
4907 1045 9154 4017 -2669 -4481 -8762 8386 9114 -3648 8980 -2382 -8748 6961 7702 0
6399 3644 -454 4535 -8766 5425 -9586 5890 -9501 1951 -8160 -957 8183 -2893 -2950 0
4385 -7919 -7525 60 -8191 5363 8811 3483 5878 -1549 -9174 7879 -386 6101 7682 0
5080 -613 3747 9911 -4287 -4611 3447 -5917 4402 -1540 4939 8610 -905 9409 -7529 0
2659 2314 5203 -7748 -288 -4319 9088 4114 8712 9826 3783 4618 -2862 -6944 3875 0
-1831 4824 -8110 -3617 4656 -6236 2974 -17 1915 8686 9981 -4957 2129 -9903 -2356 0
-3031 1131 4883 -5021 6819 -2490 -3278 1786 8709 -7501 -5041 -6837 -980 4992 -6986 0
3979 -6011 -1608 3085 6798 3500 3585 -8949 6596 7786 2716 -3268 -4152 1955 -9627 0
7276 -6594 -549 9881 1523 -3780 -3988 -2329 6269 -5531 -6054 1555 688 9064 2093 0
-1925 -3689 -3897 -1258 -2855 -97 -9532 5641 5657 -7333 8996 -3902 -1292 3710 4765 0
-9786 -8685 37 1412 -9897 4748 -8452 -8344 9397 7382 -3106 -5536 1649 -2445 -8239 0
-5626 -5402 -8160 -1775 358 487 39 -1811 -2062 -4627 880 -7645 -751 774 2462 0
2538 -4583 -8902 7803 -9628 -4630 5036 8566 -1230 7698 -2016 2896 1089 -2787 -6946 0
-8690 6597 -2422 -6584 -3495 -1008 3602 -8742 -8656 1887 4097 6399 -3073 4992 3833 0
3839 1533 2371 4091 -3575 1853 -3843 -3388 -2855 468 -5117 7431 -8752 -5622 8669 0
-3975 4985 7291 6793 -1999 -3555 3297 2877 -2569 4881 -5138 -70 3090 1941 -5765 0
1482 -3645 9991 -9022 7033 -7809 -7142 -6580 -212 -6090 7840 -4496 8602 -2313 2954 0
-1276 370 653 -6206 -2038 -7862 -4270 -1019 2292 6331 4247 -6856 2920 5859 9921 0
-5269 1558 8804 4516 -7714 -7793 -254 5971 -9389 8934 5853 3594 696 -613 -7380 0
4567 305 5281 2726 -8693 8636 -1113 -1864 -2951 6577 -463 -6080 6779 -3224 -7719 0
9123 4993 3118 5685 8806 -8596 -7471 -6065 -6165 -4394 -4594 6826 9261 -3758 809 0
-9938 1982 287 -4875 -2211 8642 -7664 7162 3079 -7553 1728 355 2706 3070 3033 0
8890 -2176 7220 952 -3342 798 9021 -2160 -6564 9520 6087 -3861 -116 1363 8306 0
-7886 -8223 9750 9952 -2519 2827 -3794 7139 2889 -2884 692 -9503 8593 -8116 512 0
7133 -5657 5501 66 -955 -3056 7302 5888 4479 -8717 -7221 -8649 -7105 8449 6978 0
-3986 3004 4294 -211 8763 6355 4538 -3327 -5900 1771 4817 5084 -7562 8759 7495 0
-7883 9764 5376 835 -3932 6924 -4649 6545 4063 -1450 9562 -1854 -1325 9142 -2498 0
8320 2369 5287 -6658 8397 9702 -4794 3650 7834 6454 373 -2073 -9458 2604 8171 0
-8783 -9684 -1791 -358 7458 -1378 2539 7487 -3135 -1996 4478 -6143 8427 -3313 4795 0
8929 -34 -2215 -4438 1223 -1998 -4997 2102 5376 -5834 -7114 2046 -4892 -8811 -3874 0
-9460 -1275 5284 -3022 -700 6687 2476 9684 -3297 8347 11 -5478 -411 -3150 5492 0
-5044 4422 -6489 -7850 -8382 5263 6062 1270 9011 -4883 -3774 -3993 -8208 -5300 7349 0
-4400 3071 -5328 6322 -3437 6694 -9155 -3382 9698 -6094 -7447 -1611 -6195 -1566 -4799 0
7600 4197 -4607 1067 -875 -7490 -4087 5781 -7503 1711 9001 -6700 -577 353 -8316 0
7896 -6334 -4041 -3621 -1302 -4468 9566 -8461 -3090 -5963 -4173 -7357 -3278 9041 1586 0
-8160 -7485 9282 -9821 -5499 7135 4313 605 -8153 4159 8449 6873 1095 7557 1302 0
1300 -3665 -4959 8553 6682 3300 -3123 3739 -3026 9716 6148 6283 -7993 2153 -5631 0
-1064 9835 9362 -2901 -5998 -465 2238 3451 -8169 5090 -539 -8731 1224 -8362 5715 0
2221 -7520 9771 -3316 -2965 429 -590 4037 -600 -4086 -7849 4685 -499 9742 1217 0
7339 3991 -5692 532 -3837 -5619 7031 8424 -1177 5375 -2157 8580 4176 -751 -1361 0
-7140 -661 7235 6677 -297 7085 -6183 785 810 -6983 -7849 6338 5477 -5040 7916 0
8106 6104 -7790 6336 3750 -1627 2321 -8386 -3782 8348 -1173 -6657 865 -8015 9582 0
6438 6839 -9309 8888 7103 8123 -1868 5510 6670 -4379 1323 -9496 -3653 4439 -8055 0
-9196 -3875 -6676 2376 7744 3386 -5278 478 -1822 4275 -5884 -8091 -336 6332 526 0
-909 -6588 8203 -4763 -301 6227 -9805 8299 -2496 6354 6923 -1838 -8292 -6981 522 0
-2712 7652 1800 9864 8614 -6003 7295 1015 -3194 -4361 757 -2524 -5081 8985 4434 0
3091 -1383 7781 -1475 -4583 -2349 -4072 -294 -3531 2481 -3533 7319 3824 2668 7494 0
-4396 6426 32 -3813 6802 6851 7348 -4188 2445 -7908 -3625 5716 673 -6239 7741 0
6358 8113 -6292 -7311 -1986 -3453 -8889 -644 4028 4097 -5603 9478 -3798 -540 1046 0
-6908 -2723 7992 -7887 -4044 2446 -7122 6959 -6553 7373 -3956 7558 -1478 1836 7008 0
8659 -930 2983 -3309 -7070 -2618 9231 -7205 6956 -3164 5998 -2107 -8754 1027 3443 0
7563 9190 -5235 -7932 3736 730 1003 -8387 -8754 -6111 -4070 -7085 4811 5017 -788 0
-5727 -4380 -3616 3560 -988 3344 -9384 9401 -7460 7504 -4611 -6000 -2859 -636 -334 0
-9216 -4270 -6102 -9034 -9088 5640 -8164 -9982 9937 3178 -7574 3132 4359 2856 3517 0
-591 -7934 5728 4761 -4674 1573 -3325 8416 6073 5634 7510 -8580 5027 -4393 7485 0
-595 2719 -9078 999 1829 9506 2966 -5528 2517 3342 4744 6115 3118 -9334 -8063 0
2979 -1976 8840 -4481 -3777 9043 3458 6504 -5449 6304 4383 -7343 -6539 8760 1132 0
-8281 -2744 5782 7090 6463 506 -4978 -7402 -2664 -9655 9334 1610 284 879 4235 0
1886 7794 2660 -3055 -5229 4667 1207 -5901 -7472 -9555 3186 -7212 5923 8913 4750 0
1165 443 -7169 -6874 7116 -4286 1907 -1879 3772 -8571 -4777 -1809 -8644 4974 1534 0
4366 -782 -5615 -6084 -4103 8027 -7078 7973 -4697 -2859 -5259 -5150 -4821 1847 8062 0
9927 9143 -1818 -5620 -8581 4537 9387 3331 2339 -8503 6392 -8267 -793 5523 -6037 0
-1730 259 -9430 472 -3717 -8342 8198 6816 -6527 -1936 8246 -571 208 8885 5078 0
-7757 -4683 -8035 6874 -1113 2907 9879 1767 -9143 -9333 6504 6563 -1251 -7122 3893 0
-6690 -1992 -5697 9969 -4922 8511 -4050 -7772 9070 3115 -8892 960 638 -6108 1545 0
-1920 -4863 -2966 9582 4211 8190 2643 2492 7988 8075 22 -6286 -9323 -2865 -1267 0
9799 -8200 -1358 1637 -1159 -8050 775 5571 1756 6469 -2057 5676 -7550 1697 2176 0
-2366 4216 -5945 -4397 2423 -5685 -2656 -6340 8591 -7848 6021 -9269 7459 -3480 -5211 0
2086 1095 3098 -1261 -8637 8111 4645 -4955 -8244 -5808 -1287 9049 -8643 3750 -1044 0
-412 6342 8198 -6614 -5222 8856 5900 3066 -8772 -7562 -2658 -5365 2209 -1841 -4008 0
7180 -6413 2904 2086 7543 122 7826 -5125 3657 9257 8783 1828 -6736 -8457 -5919 0
7156 -8569 9703 6989 -522 6546 -7643 327 -7045 -2203 3764 3643 912 -3155 3394 0
1231 8406 404 3296 4971 8247 5692 -7050 62 8327 -5409 3484 -9912 3128 9127 0
4613 -6287 3992 4271 -4758 1788 -4446 -351 -3453 -3804 3028 -2916 -7928 2296 6030 0
-7026 4575 -5133 82 -1123 1033 -1550 -8509 7884 8772 6386 -9121 -1236 -4155 -6954 0
6466 -9056 5743 -7966 -2856 -2026 8753 7851 -2718 -1033 -1320 -4408 9207 -9409 1929 0
-4807 -9875 -9183 7761 5092 9434 -1271 4664 -3840 3239 2953 4145 4067 -7159 9133 0
5943 -2889 1360 -6934 -909 1572 1370 2570 -9793 -5618 -3252 -5963 -4393 6653 -8140 0
4570 -4934 -8510 -4129 7001 -3078 3727 -8313 2921 754 7647 1147 -1387 -1246 1212 0
-5175 -585 -7611 -7851 2256 6772 465 -2548 4047 -1219 -7628 -4770 -4015 -6265 6047 0
-563 -5769 -4978 -4301 -1837 -2274 319 6407 4583 -8498 9004 8946 6789 -9123 -6117 0
9704 -18 7924 4707 9204 -8581 -1571 5587 -6053 -8607 -9982 396 -8357 4599 -4752 0
706 5586 -7824 -9684 -2337 920 2144 -4735 9235 1531 -7730 7638 -8613 -4882 9115 0
1148 4514 8200 5691 3999 -5014 5773 9984 6716 -3567 5313 1609 -2833 1573 7497 0
-5578 5506 -7093 5663 4171 1837 8019 -6146 -3174 -899 2438 1520 -2819 -6871 -3812 0
-243 -64 1086 -8214 5476 -5746 -2342 -2381 -9832 -8506 7587 9719 -8369 6056 -4905 0
-5748 5148 -5030 1665 -3507 -6199 6826 -2847 -3538 -7750 8451 8360 1429 -7804 -6990 0
-843 9442 2074 -7107 -1193 -413 7941 -1812 -8630 -8221 6492 -2088 791 4606 6081 0
5450 -4179 576 -1795 6123 -5413 -1805 6006 6941 -5357 6316 -825 6797 -9316 -7988 0
-5466 3063 417 -4907 1751 7697 -3434 -786 5199 -6583 1915 -1432 2325 8266 -7407 0
-717 -945 -2760 7466 4938 -849 7956 -4294 3604 1911 -6256 9966 7399 1296 -1560 0
966 -1738 5309 9982 4154 2632 -4822 7057 -1076 7234 22 -6516 -4977 3593 -8483 0
-5620 -5548 1587 -9847 -7108 -1952 3954 -9004 2637 -8162 9190 1955 4500 3591 -7048 0
6900 8958 8724 -9444 -8861 -5270 958 307 2162 9225 -810 5695 7327 8432 -7797 0
6069 3197 -7548 -1101 7243 -6019 -3941 6631 7883 -6585 -7119 7980 1091 -4112 -2115 0
-983 -108 -6143 8416 -6730 -2701 7595 -2378 9831 388 -7424 -1140 1199 7054 -3810 0
-479 -4282 -3488 8670 -7129 -6195 2400 6253 7268 3522 2296 -1187 -1298 -7231 7089 0
-5551 9183 -4250 -1356 6999 7618 -3229 7487 2133 7450 -5548 -8784 -8051 3268 -5057 0
-979 -1108 8031 7282 8558 -9866 -6904 -2238 1410 4828 4619 -431 1833 1501 -8940 0
8263 -2355 1442 -9031 -1559 310 8012 1557 -36 -4144 4674 -5467 5086 -622 6423 0
7713 -4014 -5058 -1747 -3692 -2301 1805 -7307 1278 5847 -3925 -3188 -9350 8595 -2597 0
5702 4581 -810 3088 9707 -3520 -6265 -9296 2427 2484 -7621 -5286 -8247 -5145 -3649 0
-195 7887 906 -1848 -5008 -7326 8987 7795 465 -5409 -1518 2485 460 5721 8409 0
7701 -3048 -9154 919 -373 -2933 2823 -7237 4640 5490 5958 9634 -4540 -1491 8316 0
4317 -4293 -2683 741 -3493 3751 725 -7478 9304 2818 6565 945 9296 5965 8881 0
-8461 -326 2326 5181 -4538 -2520 -7181 2340 4353 -8610 8941 -6437 6673 9086 -8113 0
4244 6963 8024 5251 6019 3170 960 2656 6475 -5929 -1385 8858 -9219 1004 -5411 0
9067 7257 9732 -8621 -1551 -9597 4745 -7704 -2573 4098 7266 -4974 -9060 -2124 -1210 0
6731 182 -8974 -6973 1891 -4059 -4311 3358 6750 -9427 6635 7312 -7747 8218 -6803 0
9053 -3015 5626 -9224 -7697 264 7119 -4429 414 -8977 1756 -8755 -8044 3328 7900 0
-8962 9011 -1600 199 -4162 -3126 5673 5601 -6403 1113 4807 116 702 1663 8240 0
871 -3306 4793 -1213 -7592 3058 -4520 5332 3017 -8297 -2325 4732 9064 6677 6759 0
231 101 7697 3567 -2837 -167 7644 1727 7104 1056 -7583 7083 -8403 2332 -7817 0
4169 2090 682 7344 3928 -8077 5621 2378 -3362 3411 7989 3196 334 -6716 2919 0
-5531 1894 6096 967 7265 -3125 1038 -3367 7715 4348 -7417 3827 278 4200 8997 0
3586 -1282 4926 -8606 -591 -686 -9432 9183 -4857 -9737 8592 -8746 -2350 301 -647 0
-7180 4845 765 -9360 -9465 -1024 -4496 -328 -1446 8290 -144 -3738 2527 7651 -5876 0
318 -8044 -4247 1789 66 195 -1312 -371 -1296 -7396 2191 8371 -4852 3783 5680 0
-3140 7548 -3121 894 -2118 -2808 5802 -191 -4486 6695 5587 -8033 -9632 -8006 6008 0
-6476 -1316 438 9584 -8435 -4402 -857 9354 -8927 2142 6088 4667 4441 859 9042 0
205 6629 -4509 7679 -634 6931 1285 5621 -2708 7036 9842 -3204 -2725 422 7166 0
-9827 3420 6373 267 4350 8114 -8719 348 -3831 7172 804 -6858 597 9806 -7368 0
6038 2972 3190 -1613 5448 630 9295 6112 7437 2313 4783 -1185 6703 7319 6375 0
-4329 7945 1131 1544 -4430 8731 -7057 -7846 -2492 1771 6272 9936 1590 -862 -3517 0
261 -67 7674 5930 -4456 -9759 4811 -9899 5493 5531 6110 6541 -1720 -3522 -8761 0
5085 -4668 4836 4747 6995 -7014 1800 9151 6531 -6020 -2176 -3429 9913 9842 -2769 0
698 -6835 -4633 1557 -7966 -8567 140 6627 1713 7881 5320 537 6512 6635 -2266 0
-6224 -9417 5505 865 -6573 4232 6391 -735 7313 2091 -4435 3993 3988 -2434 -665 0
-1113 -8838 7280 -8032 -16 6277 -9936 -3461 -4073 2705 6716 -1619 5752 -899 5181 0
3592 -8509 1914 806 2315 2156 -4492 -8519 -8204 -9684 9371 2625 -3249 1512 1853 0
-7045 7951 5222 -2601 2128 -5201 -5735 -4567 -3233 6244 -5762 5655 9935 -6704 -2520 0
7885 2431 -6117 -202 -9647 9661 -8511 -74 -2182 8418 4087 -130 4199 2644 -9944 0
4300 9352 9114 6590 5219 1068 -8992 -4765 1662 8097 -7270 -5044 -3586 9591 2378 0
2547 -6717 9873 -6184 6277 7556 8353 -3451 -9514 -3454 -6694 -8257 -3533 904 -3508 0
4670 -8417 3519 2931 2797 6904 -3120 5184 6942 3580 -4055 5892 7485 7155 7396 0
-5620 -8666 -146 -7131 1468 -5397 3302 -6868 -2557 -8295 3477 -8507 3407 4760 8062 0
9364 6377 6012 204 -1136 5764 -7945 -3325 -3442 -1839 3345 -2914 -5709 8984 -6823 0
5939 -9785 8789 4149 9367 2456 -356 8093 420 -3267 -8837 5814 -8363 9672 -2167 0
-4090 -4692 -182 6704 6924 2971 -6799 -2481 -9512 -9550 4308 6806 9472 3688 1305 0
9155 2061 6492 667 -7430 -2874 5940 2458 -6841 -5914 2537 2269 7757 9648 -6686 0
-7783 2171 -2831 -5513 -131 4957 2037 -8501 2882 2491 -3374 -9101 -6591 -8818 8722 0
6930 4572 1342 -8343 -893 -3795 102 -4237 -6976 7869 -8683 2765 1319 730 -9470 0
-9939 3617 3395 6726 7711 -1074 1202 3320 -8247 -8871 -3050 -6145 791 -3379 9121 0
8256 -8867 5555 -3758 4465 4735 -5814 344 6387 1977 -8127 -1807 660 -1767 8147 0
5767 4047 1303 -2025 -963 2391 -6065 -322 3596 1827 -8142 8731 -5332 -9569 -5198 0
-4292 -5363 -2348 -726 -7859 -9554 -3154 5586 -5536 -1407 -2260 8304 3640 9770 -1188 0
9300 -1132 -6531 -3592 -5959 751 633 -8344 -2414 7846 8345 -3063 -8437 2967 -1883 0
-6770 1020 1566 -4048 -7826 6073 -4790 -7556 1444 -4338 -8565 -2196 -6464 -2940 3801 0
7133 -707 -7125 -6809 -5429 -2885 -2349 5275 4216 -8438 8823 7538 -5797 2653 -4516 0
4517 6185 8442 3701 -5002 171 1336 -816 5352 9575 6368 4026 -9973 -6741 7563 0
-4025 -1044 -1990 -3085 5112 -3352 9731 -6965 -4028 -5119 6476 7686 9587 6914 9642 0
1636 9586 9760 8082 3766 2518 8427 3349 -8131 -3704 -7340 -9902 -188 -4694 4681 0
-7355 8780 7568 -1233 -2699 7329 -5825 -8572 7269 -2306 -6368 2262 1079 -3103 -8884 0
4377 8634 9929 4689 -4949 7834 -5367 1270 1597 -6632 6326 2538 852 -9396 7713 0
6503 2079 -660 2679 9269 3740 -6014 5147 -1557 9126 6049 2744 1287 -3095 9616 0
4717 -9836 743 5661 4438 -1010 -4897 4859 -7499 -9615 -9041 1093 5464 -7846 8650 0
2966 8484 -1854 -6213 7692 7111 -8624 -4216 -5240 -7405 6198 -1840 2763 -644 -1864 0
4728 3994 -4378 -3429 3449 464 8298 -9600 1871 6399 -7982 -8623 -5866 8492 -9487 0
-4438 4792 3616 9040 1167 -3464 -9783 -1345 -6668 -9728 538 -2148 -8012 209 -9467 0
-4883 -6022 -3933 7515 -6730 1212 3090 -8393 2648 -8153 -3021 6184 471 -2550 -2372 0
-6692 -8891 6735 1116 -2597 -7634 -3360 2957 -9939 -1036 2715 -6003 6642 1777 7559 0
2007 5773 -1821 7478 -5318 -6101 -5914 6221 3769 -4391 7683 463 -340 7816 -1588 0
-5360 -157 -9316 -9406 -1941 8753 2432 -4295 536 6211 7717 2322 8147 1309 4578 0
-4099 -4845 -3269 -5519 -2553 -305 -6336 -406 -96 3819 1131 -1424 -6356 -6609 2234 0
6195 -5540 4619 -7672 -9174 9874 8762 5277 -2307 -9180 8740 2223 1908 2315 -9056 0
-681 -1375 -2599 -4373 4869 -592 -5391 1208 -3685 1874 1524 -3146 -8782 1548 9292 0
-8183 31 -5577 9538 -6958 -1528 7001 8695 -6730 -1140 9709 2709 -9011 7243 -7544 0
-8878 7945 -3449 3971 -2088 6287 8906 6532 -32 2283 3622 -3201 731 9972 -1929 0
-1402 9200 6377 2636 4001 -8180 1638 68 9269 -8546 4031 -1482 -6205 1484 1944 0
-7043 4849 5744 3810 -1349 7217 6781 5392 361 -5384 5381 5780 2521 -8140 -5650 0
-7228 1025 -1464 1246 -1215 -6217 -7737 7412 -452 -2557 653 6121 3775 -9310 8919 0
5791 6299 -6819 7691 7029 -2108 8760 593 1244 7324 -9113 -6254 -9105 8126 -4290 0
-5654 3039 954 -8132 8233 -239 2671 8169 8403 -9284 786 4050 3281 1725 5314 0
7701 -9852 8981 4088 6168 2807 7553 -2211 59 -9265 -4858 4943 4162 -3626 -1146 0
2385 6926 1653 -72 -6884 4525 -9004 -3346 -1758 9629 4161 -6526 682 -8742 1843 0
-9657 -9029 -6529 4618 9563 -6822 -3023 6743 -5459 5821 9670 5099 4967 -1496 -8546 0
4663 -646 -4898 -9002 -6217 91 -7060 2189 -2154 -3042 -136 4341 -8256 -1948 9673 0
4227 8573 3240 -8165 7561 7714 -6100 6943 -5638 -7298 1029 -9445 -5619 -9497 -6429 0
1440 -981 8315 8491 -5732 -9577 -1859 -252 9662 4 -1191 -4325 -270 -2526 -9837 0
-8041 -1091 7429 5611 1315 3752 -7267 -2718 4112 3613 3594 9232 9058 -6891 -1894 0
4159 9683 1357 6279 9444 -6122 7100 6959 -502 -9375 8806 4086 2582 9013 -5038 0
5927 4534 4565 7571 -1491 1334 -1784 8461 8206 -8402 -9056 -3646 2671 2231 4010 0
-5482 6670 1321 644 47 689 4759 -518 -7590 4597 -2615 3138 8178 5317 -7084 0
-5902 -7422 1007 -9821 3096 -4317 -1679 -6352 -1028 -1644 -3533 4660 3433 8238 -9715 0
4635 849 2249 -6845 -6834 -98 9899 -6423 3497 -2685 9104 -6983 -2829 -7932 -3182 0
-2539 -5707 6204 -4026 6415 -3479 -4185 -9978 -9272 7399 560 9623 9693 7512 -1667 0
380 7727 -1915 8653 195 1766 3816 5857 8968 7582 -8515 708 4195 3027 4868 0
9489 -8672 2923 -6771 7869 -272 -9600 1999 3139 2476 -2238 -8736 -4076 -3334 -8867 0
-1111 -1906 -7474 6703 6410 -4910 6207 -1947 6033 1068 7713 5178 -2148 7558 7121 0
6148 -1080 -9169 -856 219 4855 9068 8541 3871 -632 6631 2867 -887 6297 5140 0
-6933 3964 5132 -3633 -7632 -3630 6382 -1451 7090 9873 5949 -6214 -2683 3396 7200 0
3508 7104 4722 3674 2402 3435 2031 6835 -4570 7928 5725 -160 -5167 4400 -4171 0
7126 -8550 8164 8246 -4863 -7459 -6815 -6641 -2695 -3501 -7217 5828 -4324 58 6030 0
2898 9535 445 -9032 -1927 -6134 -6445 4556 -7300 -2528 -2942 197 -4863 -5269 2364 0
7437 -2001 7768 2420 -6088 1487 -2047 -6978 69 3490 -2009 1152 -6782 5987 5032 0
-6263 -4770 2857 -5944 -437 -5206 -761 -4109 2429 5088 -1014 7730 7479 -1805 2933 0
-3941 -2503 1337 1518 -3638 -6735 -544 4109 7642 -9140 -3229 -6228 -6134 7589 7996 0
6453 8736 -1632 -2508 7140 5007 -6410 -6398 1815 -2223 6261 -1357 1984 -5067 -2147 0
-2385 -8062 5271 -2183 -9483 2866 8692 -4072 2068 4543 1037 -1817 -8540 -4409 8949 0
-3401 -5269 -4779 -9753 2192 -4692 -4850 9953 5482 7827 4762 4693 7040 1006 2689 0
6613 9762 7377 486 -202 -7796 7646 -208 -6081 -2118 3696 4012 -8879 2988 -4458 0
-4383 405 8439 3164 2323 -7753 7873 -3653 -9429 2742 5590 3774 -7258 -4077 4510 0
-9108 5876 -4006 9489 -1717 -4918 -9598 -5618 2711 915 3431 -5071 -4391 1017 7904 0
3812 5460 5069 7109 7310 4227 -9520 2568 -8050 -4777 2946 -4352 -6140 3007 -8159 0
-2401 -3085 9264 3932 7396 9004 6271 -6152 -8948 6867 2206 -9707 3948 -6671 -4487 0
-9831 -3787 4911 -4507 4105 9630 -3287 8135 7926 4599 -2732 8271 6881 -6144 -1924 0
5541 -27 -8136 7333 -1485 8205 994 2812 2096 -9396 4448 1100 1881 -6777 4710 0
-7660 9252 -6156 5924 -203 109 9294 -6879 5482 4353 -6412 1667 3000 794 2700 0
431 9563 -7517 9600 -897 -9982 7273 -4208 4951 -8787 -2894 2250 -7968 -2836 987 0
1722 -693 589 -3861 -2987 -2230 386 7517 -3484 -4560 -2388 4195 8566 7049 5490 0
9788 -2290 -2826 5227 8671 -9787 1500 7173 -876 3592 5411 6130 6672 -1483 -967 0
7127 -5883 4415 1089 -9100 272 -9665 7070 -1418 4738 1575 -3205 7010 -8304 2257 0
-5221 2587 8965 -7876 7921 420 5257 -8490 -1905 951 4609 111 -6885 2101 9709 0
1200 -7134 -6921 -7364 4315 1385 -2635 1185 -1762 7349 -5428 -8673 6202 -4602 -2651 0
-2968 1337 3022 -1978 -4322 -363 -5004 -4470 7871 8808 5714 -3083 9774 1738 3564 0
-15 6844 -864 6050 7730 8429 923 -3445 3704 -3371 -9256 9380 3709 9989 1711 0
3797 -5330 -6068 8398 -6893 5455 5295 -6120 -6353 6233 5243 2873 3564 3759 4315 0
6910 7781 5085 -43 -2019 -7098 -1054 -9177 6468 -1254 6496 1382 -3996 -1202 5154 0
8164 -7117 -376 2684 -663 7288 6466 3935 -5962 9141 -3064 1421 -9713 -648 -476 0
6139 -9243 1846 -1562 7924 -7780 2407 -4845 8948 3212 2513 8138 -8033 7776 7350 0
-4114 -695 -5949 -4350 7657 9371 2484 -7994 4465 -1493 1034 4620 -2252 -883 273 0
-6082 -3198 -8833 -261 -7794 3892 -2002 -8016 1935 -5812 -1218 -9967 -7082 3496 4957 0
6917 7032 3361 -574 -8595 6499 7787 1685 3581 -6601 3498 -2454 -235 -9874 -5044 0
-7118 2668 5816 7015 2791 -6816 4017 -9995 -2607 5337 1310 -8175 4151 -4627 -1136 0
3218 33 -5148 -7780 -7941 -797 8904 -5518 6382 5100 -1468 -1190 -9994 -1728 -9313 0
5087 -3884 7884 2708 58 6251 -1480 -3492 8439 4242 8511 -1714 -1127 -8165 -1634 0
8893 -7278 -2426 -805 -4825 4098 9213 -1928 -6509 -4271 -5798 4199 566 2843 -328 0
-9529 -4945 8937 1613 -5412 -5226 4298 -9348 -8946 7951 -4215 7740 9426 -3915 8228 0
-8805 5333 -4202 -123 529 -2458 7965 3950 -4501 8449 6950 7791 -9398 6039 -374 0
524 -1095 3954 -3869 -9653 1009 -1808 8936 -2507 -8722 -7280 4985 6824 2081 2895 0
-2844 -9513 4492 -4546 -7335 1686 -5822 -683 -591 -9398 -6055 6252 -8613 -3202 4110 0
-892 -2299 -1660 4664 -3590 2389 3989 -140 2710 -9689 -428 -1712 2065 -9759 9521 0
-4919 2989 -9008 2355 933 -8461 -8193 -6120 2200 3964 -574 3663 959 676 -5853 0
-860 5658 -1098 1217 -7726 191 4992 5421 -5833 -7573 91 -9478 -9006 728 -3210 0
5589 905 -6611 -5403 2862 3058 9998 6623 3926 -9908 -4802 4511 4285 1074 -692 0
9186 70 3856 -5687 8356 -9461 -1945 -3374 -9467 7916 -9149 9179 8056 -7980 -9016 0
-4091 -8877 -5202 9993 -5870 -1774 2231 9163 847 -6089 -4129 6096 -8910 1450 -964 0
-2619 1581 2068 6246 -284 -3234 -8318 -9330 -7284 -8296 8800 -4014 3497 -7301 5909 0
-4559 2483 -4555 625 -1352 -889 4962 8474 -1523 4107 -5573 -6724 934 -7747 9269 0
974 7034 2487 -6374 -3052 5125 9578 584 4483 -8758 7895 7370 2457 -6588 -3884 0
-1083 -6961 -3651 -283 -6253 2139 -7055 8198 -8653 -7589 -5621 -3710 7316 -805 1086 0
9551 -7487 4149 -5615 -6946 1716 -4488 4676 -3981 -4690 8453 -9246 8572 6183 2090 0
2826 -1606 2691 9561 8662 5220 -2377 -6483 6259 489 -9387 -6130 -7606 4741 2930 0
9143 8124 8710 9028 -2146 3357 -2401 -9159 2123 1816 -4267 -6917 2021 7577 7082 0
-1526 -9376 3108 2492 9275 388 3741 -6843 3645 2544 -6554 -2382 8721 -9588 7698 0
-537 7869 -501 6051 -2629 -4665 1557 3812 9972 5471 9724 9798 5979 8311 -6671 0
-7702 3516 -5024 -2573 3328 5 9960 -6323 3221 3265 -8435 8559 -4138 8039 -8830 0
8926 5862 -6802 -294 6724 4158 1486 6473 6406 -8351 5426 1123 145 -8343 1761 0
9243 387 -8944 6376 -2563 8090 -632 -798 8312 -323 -9297 7086 -5855 1426 7515 0
-7899 -9155 1345 -1938 -7471 7154 -118 6428 8490 -7083 4642 -4879 -463 -8718 -4288 0
-8195 858 8420 -2428 -3088 5916 4564 3515 -1667 -5857 2029 548 162 -7649 -7329 0
-6839 3194 -8819 6271 -4543 -5750 5383 4487 -5319 -3687 880 1807 9013 1397 -1675 0
-8134 -4304 -5807 8662 1802 6860 4264 2602 4536 -4023 2269 -9739 -9451 -6035 4948 0
1804 3927 2205 -5219 -8077 -4284 -7723 -2072 -643 5433 7078 -8031 -2381 2740 -9073 0
9744 2926 1533 -7741 -9055 9148 -3452 5040 2324 3471 6413 2971 -9446 2939 -9025 0
-8531 5635 4519 -1220 -9728 7441 9030 6887 -1780 453 -2357 -7531 -9811 -7960 -3391 0
-6105 -2546 2521 3760 714 2946 -7789 4792 4635 7160 4089 1270 -9435 5374 -5829 0
-3903 5184 6869 -711 2557 1404 -8792 1081 8963 -8270 1907 3328 9210 3133 -8363 0
4539 -3241 4586 4617 2931 534 4571 -5990 6215 -4761 7250 7827 -5922 2388 -8511 0
-8349 -3195 8170 3872 8653 -2285 3550 -323 -674 5995 7771 3228 -9998 5749 -5413 0
-4758 -6913 -4964 3178 -5589 3620 9955 4258 -2888 -4732 -5601 -8697 917 8447 -929 0
5951 1560 -342 7911 -9647 9758 5508 -9107 -3517 1114 4651 796 -8174 -7754 -8128 0
4857 2938 5361 -2202 4819 3512 5701 -8341 3867 5789 2764 -266 -6884 3268 4754 0
-372 -1925 -1823 8995 -1862 -9130 6558 -717 4860 7783 -2473 7186 1850 -2201 -2871 0
1032 -2947 6747 3593 6999 3012 4859 8107 -1816 -8498 1574 -1907 3011 1203 -613 0
7201 9137 259 2322 8738 -1406 107 -8309 -2862 2392 945 -7480 5916 -5695 4253 0
6116 5154 6372 8819 -6308 780 -9388 -9447 8878 -5642 4093 -9970 -5285 -2690 -4479 0
-5290 5070 3328 1843 7582 2727 684 5507 -3125 -5318 5498 9452 3626 -2341 -7675 0
-4331 -1083 8647 9309 -5487 825 -5754 7082 2100 -2081 -5409 -2546 5205 -9051 801 0
-8017 8248 -7101 -515 8351 5119 8848 -6148 1221 -4622 8236 7165 5750 6789 1365 0
1910 1379 4743 8991 -9281 -421 -1542 -5903 6013 -6426 5875 -6709 -2184 -762 8851 0
-4449 1575 -9073 3822 9202 8144 -1808 -5487 -3461 9035 149 7378 -3547 4476 -8469 0
-1958 -7353 266 4009 6736 2940 -5562 1832 1838 2195 4381 -8496 -4687 933 -1756 0
-354 -8392 2956 -1281 9964 -222 -874 4284 -8491 5286 -394 -9561 3932 -1494 -3412 0
-7634 3202 -6765 -739 4258 1676 9742 -819 5321 -3096 8301 -6933 -5595 -2546 9567 0
-8129 6919 3968 8333 2285 -747 -1510 -5420 6633 3033 8301 3722 -4522 6856 -811 0
9960 7562 -7988 -8989 1198 -3001 97 5331 1597 -7652 -1955 8438 -228 4036 6053 0
377 2871 8180 4840 -6762 5037 1953 -9545 -2585 -6949 -233 -146 -2524 -1913 -8232 0
9000 9265 -2717 5855 -9489 4277 -1833 -7045 1390 -6049 1630 6760 3827 8921 -80 0
7093 7964 4444 -9127 7298 -4714 -8844 -2931 7191 3292 4052 2905 -6428 -9626 2587 0
796 845 -4086 -5432 -5239 5987 8335 5807 9603 2463 3026 8225 2611 3260 -1821 0
-7300 1076 -1737 284 3756 1256 -4289 981 -6381 1884 2362 4690 -3543 114 2476 0
643 -4945 -9395 -298 -9990 7933 6157 9873 -1945 9179 1656 2243 4045 4484 -386 0
-6885 9911 768 -5598 -6842 8055 5332 9668 -9625 4358 1638 300 -8 7962 4154 0
-1061 4960 -389 -1963 -7639 570 8951 -3013 -5715 -9374 -6450 6434 9959 3959 5960 0
6948 102 -6001 -8943 -7178 -8281 -242 3769 2157 -1778 6073 -6767 7613 4435 8768 0
-3212 648 -4641 6407 5991 -1216 6498 -5595 516 -8688 -2503 -1048 2235 1219 -3448 0
-8571 8630 9324 9033 7571 7098 -5389 6271 -3349 4509 -3553 -870 -1531 -2678 -9528 0
-9466 7095 8082 -7826 -8951 2235 -4709 9102 -4305 258 -3576 -3841 -6975 -2960 -2736 0
9702 1667 -7353 8194 772 -4575 -1352 -4622 8926 -2502 -127 8144 -5002 4094 3760 0
5221 -7862 -3703 -333 -3598 -5433 -8205 7749 3214 6686 -3653 5495 -223 -7807 6601 0
-5849 5716 6196 -2750 -4757 6512 -8242 756 -7768 1357 -8556 7154 -2964 5013 -881 0
-1729 1973 1885 911 -9320 5156 -6013 -5421 7641 -2870 2859 -1732 -9942 -5649 4773 0
-8977 4243 4591 6990 5786 -2980 7380 9274 -7751 5927 5487 -4640 -6609 9597 -1989 0
-9096 544 8153 -9954 -1427 -1667 4714 -1626 -5914 -3490 -3990 6770 5750 -159 -1463 0
-8219 9316 -8955 -2777 -3751 -5583 -9784 -2798 8739 1087 7576 9124 2206 7045 -7609 0
7250 9607 -6494 -9601 -7797 -5819 2777 -9401 -2843 -4184 -4871 8823 -4242 8827 3399 0
8614 -2880 -3779 4788 -6618 -5253 6105 -8365 -7691 -8805 -3314 2100 -1105 -6635 -2200 0
9745 91 4524 -1138 -739 -7136 -8422 -3792 -5713 1702 -1819 -616 213 3923 6336 0
-3725 -7327 5257 -9456 3624 6775 7275 -3412 9338 -5177 3146 -7749 117 9344 2434 0
893 -7057 -7084 2599 -464 1667 -8554 -9850 -6500 -5035 1741 4156 454 -15 -9968 0
-2272 -5321 -360 -1335 9862 3500 2271 -9573 4254 5458 -2167 -3429 -7292 105 4641 0
1167 1230 8901 3785 -4544 -9712 1487 117 -5631 -4372 -1555 4475 -3079 2779 -1893 0
-2788 -4278 -7391 -8553 5640 9276 6404 7737 3100 -7039 2483 9404 -1162 -4360 8503 0
5621 6622 865 2829 210 6458 6518 5921 9863 260 973 1992 -7179 6509 -2974 0
-2582 -9661 4238 -8652 7347 1476 565 9688 1185 -7271 -5677 8504 8881 9960 8223 0
9087 9027 -8879 3934 3044 8916 -3856 6124 -832 -8973 -7493 -8371 2312 -4768 -811 0
7028 9861 2473 -9604 -1775 -431 8055 173 -3647 9233 -675 9061 8573 3353 -3254 0
849 6974 7103 4558 4166 -5444 -8021 9711 4638 -2937 -9819 -6680 7423 -3846 3860 0
-454 -617 2068 -19 -6478 -1830 1250 7131 -2076 6086 -269 -8921 7795 -8110 7183 0
-9078 7387 3512 4937 3967 -5828 -3195 5554 4813 379 -5649 3944 -8468 1066 9971 0
284 -6597 -3671 8209 4661 8563 -5069 -4344 -7998 88 3268 2252 -4360 5870 8513 0
7233 7624 -3859 -502 -8640 9848 7908 -8137 -3512 4477 4274 560 -1301 6807 369 0
-3773 7284 3833 7993 4254 -9359 7325 4619 7184 -195 8212 -9391 -6456 -6116 -54 0
-8877 -7202 -6627 -4341 -2457 -8650 -94 3686 8290 1750 -4895 -2793 859 2425 -6482 0
-7277 3880 -655 -6213 9194 -3888 -4562 6358 -4086 331 436 -3444 3914 -6588 5043 0
-5833 -8903 -9366 3091 -7832 -4921 -1653 2276 -6396 3624 4995 9247 -5863 744 6033 0
-3837 -5257 3192 7072 4988 -8260 -8547 9128 1310 -5940 -3437 -5624 -4699 5522 3864 0
3948 370 9591 9969 -1544 9947 5925 -9221 6637 1015 -3512 -1198 2562 2849 9442 0
-4999 5574 8858 -9946 6072 4774 5886 -8900 -8067 -8414 -6262 -1424 -3876 -6516 -5693 0
-9952 -6929 205 7082 9428 3378 -9347 5915 67 -9056 -5523 -1810 -5151 -9767 -6719 0
8899 7579 5906 -2415 -8282 7127 -3807 -5396 -1195 3588 9589 -4708 8609 1156 4904 0
925 -4445 -6527 1586 -6021 -1900 -79 -8040 5358 6748 4356 -2591 7472 -2624 6550 0
1167 2692 -7558 -7112 4931 9953 -6953 -9212 5526 -2214 -745 166 7696 7991 -9419 0
9317 -6121 6907 -8039 -7032 -957 4503 5904 -5104 8429 4761 588 4589 -5518 -3853 0
8778 -2072 207 -8733 -6602 -6334 390 6152 3869 4415 1123 -3223 9504 3274 -6132 0
-1285 5271 -9203 1975 -8674 9680 1992 2224 -1468 -3350 4215 -4799 8011 -4996 933 0
4363 -6413 7398 -3960 -1430 9619 -9570 -268 8770 -386 -9631 -7125 137 -9000 -43 0
-4240 4859 -280 4022 6697 -1388 -5237 295 -7592 -2071 -4988 5150 2681 -4292 2596 0
5991 -7979 -8291 -2736 -9308 8955 293 2430 -1314 -1741 -3546 5328 -4629 -8480 -8880 0
-7261 3222 8602 3604 1611 9956 -7803 2367 9043 -2002 -4980 -4618 2779 -6840 -8588 0
4300 -4837 8820 9351 2996 6950 6207 -5646 -7586 3305 -6839 -1113 7249 -4297 137 0
-7952 -2742 -7038 5834 -9757 -802 -4082 4655 -6787 -3694 -1272 -2501 -5429 -6805 474 0
6108 -252 -7731 -9053 5790 1234 -7168 51 -3523 2098 7435 -305 8526 -8802 8950 0
-6759 7364 -7624 -3760 7995 4605 -1724 -3561 -17 -718 1380 3108 -834 2331 5125 0
-5464 6837 9751 -1877 -15 -9686 -5122 -6793 1796 -393 -5680 3499 5040 2440 -9455 0
3282 8753 2147 9565 -4234 7019 6518 -797 -7762 8721 761 -2260 -2473 -7527 -1409 0
1402 3542 4110 8988 4362 8462 3164 -3977 -2025 2244 -6884 8894 -9252 -6385 7054 0
-9716 -6063 4372 -6978 -2078 9142 3419 -9161 4687 2405 -7360 8610 -1341 -508 2344 0
-7967 9398 7421 -340 8995 -1621 -6071 2797 437 -7372 8994 2995 1856 -7354 -9512 0
6797 -9173 3555 -8233 2985 -7654 8259 9615 -2914 -9596 -5479 7959 9187 7279 1849 0
-4581 2743 -5814 3713 -3899 -9 -6023 -8611 -9264 2424 3064 -7318 -2499 2829 8729 0
7813 -6799 3672 7272 6924 5806 -7946 -627 8684 -6329 7648 -8195 -3126 -2227 -9843 0
-6128 8372 -6793 -4002 -9249 -7147 9336 -3336 -9770 -7097 6798 3825 -1964 9799 847 0
-9796 -231 894 9113 4061 -8438 -5911 7617 1808 3508 -2282 -5370 -2947 4043 2353 0
-5693 -8184 -8154 2326 1944 -9219 -9661 -2613 -8493 6472 740 544 -3961 3213 -2365 0
4580 6922 -6144 -1019 -503 -3161 -3061 8139 3401 -6223 -2233 3142 -3210 8881 1894 0
8174 -1724 -6044 5998 1276 3473 388 -880 -4197 -1919 -4867 -8909 3913 -5284 3927 0
3082 957 4428 -9545 2854 -3187 -1477 3619 3091 2517 1892 -7259 99 5602 -987 0
-6922 -3448 -4280 5556 67 -9626 -5347 -1939 -725 2948 -9356 6799 -1869 -2946 -2342 0
8690 -9630 2139 2785 -1751 -586 -8278 -7687 9026 491 -1082 -5355 -4586 8308 -4555 0
-3532 -5723 4012 6145 6662 7448 414 3856 1474 1192 6253 3981 -6693 4972 -836 0
3869 -8724 -1948 8965 2864 -8369 -1151 -3366 4068 3948 -4155 29 -2824 -1085 1055 0
-943 -6250 -7973 -2276 1845 -4953 5131 -8311 -9137 -9419 5121 -3041 968 -1938 8412 0
-8827 -2067 4320 -4020 9006 -8411 -238 -529 -1302 -6217 -6516 -4077 8705 -3702 -5411 0
-3256 -5930 818 5150 1923 7822 156 4753 4492 9270 -1344 2344 -9149 -5289 6686 0
7658 -5094 4069 -6056 -2885 -121 5970 2894 -5374 -5897 9787 -8764 -1826 3237 -8564 0
5851 -5658 7388 -1848 -995 -3536 6052 -7477 7423 8198 -2861 -6457 3904 -4825 6924 0
2084 4772 -4501 -2986 228 -6337 -7847 9533 -7018 -3036 -6077 -6800 1527 -9253 -2841 0
-3286 -1275 8187 1555 -898 2701 1072 -5411 -2563 460 707 -4214 -38 7148 6446 0
-8437 9388 3464 6329 5937 8433 -6981 9327 9606 -5759 -8773 -4813 2598 3559 -2216 0
-860 685 1684 -3801 -9729 -7395 4961 -9077 -1391 2514 -3809 -8532 -465 -5005 -9316 0
8148 -7515 826 7016 -2824 14 5960 4669 4848 9821 4766 9159 -4531 3989 7477 0
-4258 -6289 -4003 6793 -456 434 -2174 317 -6611 -4899 -8574 74 4997 -9259 9435 0
3178 -2883 -3133 -5768 5750 3119 -3353 -2841 8955 4159 8950 8773 9796 9786 827 0
4643 6396 5984 -3656 -143 4132 1018 9401 5648 -447 -5655 -3159 1620 8525 1710 0
-5311 -1713 9384 5701 -2882 6950 7947 5874 6399 -5399 -3579 9760 -1029 -9025 -2472 0
-3735 9101 4069 -3589 -1684 -1074 -8593 1111 5705 1975 2471 -4378 9850 -9789 -7465 0
1042 -1492 -4297 3252 -1790 7410 5496 3699 8778 2464 -4078 -2076 -6644 -1377 -6540 0
7193 4026 -7812 -5407 -2671 -2440 6213 -2454 8453 2140 4760 5581 -3494 -2704 -9050 0
-8525 -8364 1078 3263 4265 292 9262 -4697 9501 2285 3162 -8578 4028 -4011 -9771 0
5708 2707 4362 -3839 -4838 -4289 -8692 629 -7085 2005 9212 2875 3795 4010 7059 0
3845 5997 -9719 -69 8651 -9833 1072 3430 -3842 5484 -5209 8916 -37 972 4105 0
-2030 -7213 -4583 -917 2017 -5205 -3339 -1604 5192 -4452 -9039 4778 9597 -9367 -2596 0
-647 3905 9727 9785 -9436 -375 -2074 924 -5539 2223 -9412 -9073 -6127 9068 8320 0
-7523 -2439 4320 8453 671 3915 4209 -796 574 -1082 -2022 208 1199 -4637 1213 0
-927 1555 1813 -3985 -2369 -6652 -1344 -1833 5715 2296 -955 -8504 4569 -5510 -3174 0
-9562 -4939 9207 3113 5489 9099 207 7586 9178 9402 -4991 3475 1737 4682 3738 0
-1161 5719 -557 -638 6937 7853 -2230 -9892 2595 -5344 -2790 1141 -2047 -1168 -3444 0
9480 3228 4548 -1396 3543 -2982 -9431 -5539 2183 7411 7826 6731 1612 8733 4427 0
7615 1686 3517 6251 -208 -1560 1408 795 2074 -2333 -7867 -6688 -4149 -3010 5988 0
-2935 -7611 8662 -6840 3336 9807 -599 2417 6072 7996 -7298 -833 8028 376 -6831 0
7985 2195 8765 -6764 1848 -3320 5940 9833 3600 -6468 -9496 -6558 8888 -2330 -9130 0
1567 -4912 -9494 4456 1352 9103 -7268 6264 -5981 9343 -8179 -8595 -5217 -1059 8355 0
-1271 -1619 -4951 1487 -6760 1519 -5306 1327 -515 -7147 -2940 -1153 -7816 3473 9698 0
974 3798 7002 -2743 6810 -548 5683 -8618 -1074 -8894 -1719 -628 -7187 -4258 -2112 0
3636 -7027 8997 -7688 4856 -4167 -7581 6581 5884 -57 -5607 -5929 -2379 -8856 3535 0
516 5833 -7875 -8623 4824 6323 3362 -966 -6209 -8158 1306 2709 -1335 -2698 9182 0
4092 -1695 5795 7029 4847 2938 970 -6713 3491 -1371 6362 -4596 2865 3127 877 0
-7579 3022 1067 834 -7102 -7819 -8043 -8243 -5388 4671 -2119 4780 -5852 -4068 -9063 0
7311 6881 3345 1469 -2979 2209 -7442 -4234 4375 -7225 914 -8635 -6132 3227 -9023 0
-1343 -5900 -5115 8551 4865 -7532 -5108 6130 -3496 -5356 1467 -8889 -7946 -4527 9737 0
-9007 3828 6269 3514 7170 -5044 5531 5276 -3946 -7610 -8653 4784 -1471 7174 9098 0
-4257 5930 8930 5782 3704 6107 -2264 -4811 7343 2101 4621 -4914 -5264 -5769 2645 0
4281 -8215 6560 8030 516 -6697 -7989 4692 -1676 -7172 -1451 2075 2680 9277 -4592 0
9436 4676 -1271 4266 5171 7313 7288 -6852 -9007 6311 -874 -7196 -6240 1368 -2350 0
-4819 1889 -2587 2880 6733 -6597 -5561 741 -4149 1816 3549 4355 -9972 -1112 9606 0
-692 -1586 -9191 -1084 6319 1286 -5194 6185 -264 4268 -8532 -272 4703 -5217 6675 0
2481 890 -9736 8814 4319 5493 5553 -1488 2091 8718 1115 9930 224 588 -3211 0
3286 -4066 4807 3341 -904 -7575 7320 -8482 2142 6658 8481 -2196 -2191 7546 -6479 0
-4931 7846 4833 -6418 7932 2595 -3630 -4161 -9864 -1329 -1285 5402 5290 3767 45 0
3211 -2110 -4401 -2375 877 824 -4994 2453 -3417 -7787 1171 -5713 8885 4412 3346 0
7327 186 9857 -2505 1136 5216 9790 -7418 6366 8612 1623 2621 -1688 -296 9865 0
3396 -4216 -9170 4057 -3577 -8504 -8579 -6110 -3339 7557 -4480 6674 -8371 6681 4477 0
-1833 -3901 -2003 -5179 -395 7625 -3234 5138 -1495 9526 -168 -2466 -294 2063 5299 0
4134 3886 -1091 9682 2392 4971 -8558 -1986 6657 982 7353 9332 9638 2960 -4688 0
-2669 6417 -4488 9040 -293 -1186 -4042 6543 -5033 -3076 -3249 8664 311 -6055 5531 0
8397 3857 -121 2945 -1891 2046 -2338 6561 -5449 2010 782 3852 -7297 366 2924 0
1510 5298 -3276 652 1190 5275 5084 7232 -8035 -3415 -3079 -3894 -9421 -4643 -6746 0
8126 -3729 5426 -916 1919 791 -2974 6153 111 -951 -8736 -7705 -4283 1625 -5733 0
7815 -7664 -4174 -880 -38 -5899 3429 7092 -6086 -5840 -474 6359 6482 -9555 5140 0
3501 -3753 2461 7679 6038 1485 1568 2275 566 9064 -9324 720 -4158 -8385 198 0
-3985 -9524 9612 -5759 -2448 -5687 112 -9021 -5519 -3680 3316 2027 -3333 -9429 6843 0
1764 7309 7906 8525 -1477 6244 7329 5044 -7137 7729 -808 6051 -6960 -4863 1845 0
3480 -2072 -6078 9017 7066 -3013 -2418 -6464 5299 -9064 -5622 -2110 1625 -5677 3948 0
-1606 1993 5369 2271 -420 6820 1519 -638 9353 1169 9509 1680 -1314 7303 2090 0
-3611 -1859 6512 9137 4076 6432 -9179 -1175 4467 8050 7577 549 -7858 7199 -1655 0
2541 875 -4599 9811 8136 2179 3261 -5804 1321 6208 -7551 4101 360 -6491 -8802 0
9867 4535 -8817 7051 2790 352 1113 9699 -5090 -4470 -6017 6073 -6381 -9926 -287 0
-9082 3941 -3989 -7876 -4124 6036 -6970 606 372 -6107 7441 -5210 -4630 9532 7518 0
-7446 -5781 1965 8446 -2697 2857 5672 136 3726 3421 -7497 -5272 4244 1457 -5393 0
-4078 -4320 -1342 2074 9508 4109 2203 -3467 -3489 4908 1125 -7270 -1873 -6331 -9732 0
-7016 -5084 2872 -9089 5706 6766 -6173 -6943 7325 3340 -307 -7959 2530 4409 1743 0
8207 1273 -2362 7831 -5816 6365 2596 -1277 2011 -4920 1059 9739 7233 6566 9870 0
-2123 -7748 -7778 816 -7439 7447 900 3578 3973 6739 -9627 9275 -4504 -5093 -2483 0
-8602 1945 2080 -5745 7903 -9555 7996 3841 -4790 4459 -1226 3177 8228 -9951 336 0
-3631 -9908 -4985 9475 -2376 5728 1741 -9545 390 -1598 4837 3174 4253 -1966 -8085 0
-1625 -6698 -998 3592 5629 -3391 -6109 -9320 9272 -8303 -1106 4144 9732 5354 -3599 0
6919 -7810 -606 5697 -7081 -4190 -6185 -3061 6617 -62 -3361 -1406 -387 -3164 -7721 0
1567 -4772 -7750 -4755 -8897 -1135 846 9246 8519 -5867 -9301 -5388 2264 -9815 -3163 0
-1353 2306 3415 3393 5313 -5904 4162 8480 1617 3557 -4654 -2627 852 -6515 -6194 0
-5449 -540 -1403 9777 -381 5219 -8888 1299 5331 4410 5013 -4727 5590 9114 -5143 0
9589 -5730 9617 -5889 2576 7299 -9645 -8569 7615 2125 -7485 -1181 9220 5148 -7449 0
5028 7345 4090 5910 -4800 9502 -6460 -9867 9371 8557 -4601 -148 2873 641 1825 0
9492 1502 -9418 9711 -4575 4939 1924 -3761 -1527 -7676 5138 -9638 1311 4051 -7436 0
-2553 -131 6253 5292 -8343 4896 3603 -7160 -45 5610 3081 -491 -3113 1247 -6139 0
-5116 878 -9977 -1705 3639 5530 5877 -692 6674 4859 -7958 -1987 3492 6200 607 0
-8249 6369 -1049 -9296 -5999 2588 -6259 7788 -453 3336 -5077 -9292 -9029 -7957 190 0
-1134 -5255 -7018 9691 -6403 -680 -1874 -6057 9447 -8558 8622 1926 2951 -107 9837 0
4574 -5606 180 -7496 5272 6065 6036 -4148 -5755 3900 -7508 -7433 -1105 4820 7871 0
7042 4158 3078 -1391 2413 -473 -5022 -5184 -5273 -7757 283 -9296 -5804 -4575 -4370 0
1082 1593 -3031 -43 7009 -3676 7171 -7274 2168 -7190 -4807 5835 -7383 7578 1731 0
2292 -2917 -2021 7295 -7972 8032 -3979 -4534 476 -4214 8343 -549 3218 -7640 -589 0
840 -9340 -3926 9266 8536 8916 8086 -7726 2326 -8552 -697 -9585 8022 4421 -1829 0
-3563 -8407 1558 -3896 6835 5875 5854 6958 -5207 2602 -7294 -485 -9438 6282 -4269 0
8991 -8721 -8235 -1228 1330 3482 -2904 5070 -8727 -3522 895 -7492 -3709 2717 -1754 0
-8387 8224 -7347 -2241 -3080 -439 -2886 -748 -6116 -2682 2417 4758 5576 -2529 3320 0
-9103 -9935 1762 -26 -2252 4899 5769 -2250 4854 6000 -6839 -5275 -661 -6220 9413 0
-4387 -7098 2144 -1308 3178 -1073 7407 -4268 -4300 9019 4457 4589 -8507 2175 -2080 0
-4310 -2023 -783 -4654 9358 -2960 -5418 4352 -8223 9709 4935 5320 -1055 -6628 8023 0
7148 7129 -7684 2850 6056 -4246 -8927 794 -4996 -8737 -36 8742 2475 6473 -7946 0
-2323 -5228 -5959 -8423 6236 212 9762 4798 -7824 -821 475 4748 3523 -4570 3448 0
8474 -2225 -508 5846 -2052 9446 5030 7498 834 5931 3632 -6160 4504 3583 -8095 0
4288 7018 94 -4442 9218 -216 3383 8931 -6776 -5150 -8733 -6636 7927 -6111 4617 0
-2520 4263 70 3292 -3897 -9124 -3709 -3691 8696 -2661 9255 5277 6256 -550 3833 0
-6035 9794 -3637 2747 -1911 -6861 4035 2109 -6863 2442 -557 -2102 -7633 -9236 1043 0
6331 8554 4464 -5577 -9881 -2976 -9710 9555 -4294 -6937 1464 1578 4341 3263 -1339 0
5284 -2563 640 -4776 -576 9499 8960 8954 -4739 -6058 8832 6644 8297 -5083 -6427 0
-9128 -5756 306 -7972 -63 7430 -2583 1793 -5720 -6839 8012 6808 -1722 5811 -6394 0
7372 7603 7497 6758 2513 542 3363 3920 7591 -4932 6332 -7388 -1 4636 3278 0
9380 3105 -3817 -6796 8024 -7751 2881 5494 1417 8934 8938 -6912 4617 -9182 -3748 0
-9128 9199 7189 6634 1705 -8000 3126 -3371 -8940 891 6851 -4280 -1067 -5556 1304 0
-9125 -3245 4761 -5691 745 -8383 -3390 7947 8193 -2102 -6714 -6661 -2227 -2440 6448 0
-9805 3518 -1684 -6598 -6937 8959 -3082 -7360 5077 2635 -5917 3552 -8323 7934 5225 0
1427 -2396 -2699 2543 -2869 -8362 6397 7175 3077 4452 -5700 5935 6625 -607 3259 0
6035 -7790 -2679 -2574 -584 275 7513 9577 7768 8722 2302 -3974 5295 -6100 7747 0
2057 -6881 -6987 2486 -7486 8503 -9117 9526 -5846 -4048 797 -1358 -6626 7156 -967 0
-1108 9972 7871 2433 8682 -1172 1889 -8907 -4758 2741 6628 -9243 5781 9488 8409 0
-3755 -922 1968 6350 -3095 1675 -1988 7838 -5885 2803 -7008 -4414 -5018 6502 1002 0
5842 3390 -1692 -8596 3793 -5022 3908 1126 -1537 -8034 3014 -966 1277 2473 -6877 0
-9404 -4964 -3348 -9430 5354 -279 8297 6582 -9464 -2886 -5686 -6120 7883 -572 -9032 0
-2139 6764 -8870 -2830 -3821 4304 -5882 7783 -3274 990 883 3358 5530 7593 9765 0
6631 -5401 -3048 -378 3342 -6475 3908 -6767 2304 -1820 9819 -312 -9465 -3886 5290 0
-2393 5438 488 9997 -8658 4854 -4077 7411 -7152 8761 -1086 -7047 9386 9599 5618 0
-7222 -5849 -9488 4571 3777 -2837 7501 -8286 -4524 7443 -1131 4055 9723 -3061 -255 0
-7519 8180 -8927 4696 -9596 -6534 -2225 9892 -9902 -1071 -7417 -4002 7070 -8688 -9835 0
-9086 471 6070 3864 -8466 4382 3674 5762 -5616 -4620 658 5860 4330 -3516 -4772 0
-225 -1581 -8865 1881 -7359 8191 -650 3863 6053 -7300 2135 -8050 -3745 5357 -5026 0
2993 -6150 1273 3062 3754 7621 6504 -8175 8670 -3997 -6969 -9146 -4515 8668 -2551 0
-1038 -6918 -7443 9332 3071 -3700 4902 -2067 3919 -8999 6638 4530 -5619 -5661 9958 0
-2617 -8214 -2237 9874 -777 3687 4001 -3755 -9496 -1976 -6279 182 -6500 -6638 -3822 0
376 -4660 -8875 -5323 8900 7773 8049 4990 1119 -878 -6773 9783 -7698 5531 -9288 0
-8987 -7711 4634 8388 3538 -2835 -1064 -2928 -3399 6114 -567 -7372 9273 -4096 3495 0
9873 -3974 8846 1643 9023 -320 9315 -5458 8419 4316 -8529 9864 -3100 -2205 -2149 0
7964 -9973 -7478 9361 -6159 -2426 -4389 -6933 2242 -1521 9259 -7389 711 7875 -4498 0
-4415 3506 -8587 -5222 4948 -9236 -961 3798 2902 -3944 -3891 -5310 4493 6018 -4087 0
6500 -6422 -3512 -5833 -9951 6160 812 9769 -8907 3973 4866 -2938 7748 7333 -6285 0
-8550 1142 9612 -9276 8392 6650 7930 896 -5909 -4196 5488 -7016 -5724 9867 -4084 0
7778 -3765 1982 -7018 -3645 452 -8386 3257 -3172 9916 9711 -9087 -8180 8648 -6079 0
-1440 9417 -920 -9505 1560 -831 267 -6180 5417 3449 5336 903 6483 4798 9904 0
-8050 9514 2857 -3846 7719 4362 6502 -4142 -7700 -1797 -5435 -3484 8143 3742 -1077 0
5623 -4992 6026 -714 6203 -4888 -2023 7512 1263 -2169 627 3501 7742 -3458 -181 0
3474 -6177 -5025 -9344 5012 -1455 -3621 7516 6426 -486 565 3103 5374 2527 -9236 0
-2826 519 5121 6633 -4847 9213 -5070 9585 1983 -3064 182 8831 6194 -3918 -3739 0
9165 399 -664 -9470 6718 -3225 3466 7239 8664 9778 4145 -1681 -2920 4108 6449 0
-2293 2378 -1167 -1655 7028 8286 -6198 4913 -3658 -7223 -8876 -7326 -3246 3448 5335 0
5023 -8811 4591 9162 6380 -4368 6649 2601 -345 -1329 -7508 6793 -3226 -3500 1666 0
-2585 3484 -641 3792 2863 -1034 8259 194 -9547 9000 -7403 7325 -8708 2140 6801 0
8179 6033 3881 -720 7778 1698 -5022 -4434 6865 -8519 -8054 9905 7466 -9741 -683 0
-8001 2871 9109 -812 5763 5787 -3164 -4541 -1099 -3784 1527 8726 2345 6212 -7952 0
1994 9407 -651 -5278 -6946 1549 7240 2555 3940 -1853 -3142 5442 9023 1259 -6907 0
1586 -4679 -2776 2404 -4936 6640 1836 -5868 235 2443 -4301 9039 1796 4007 -944 0
-1162 -7225 -9563 -9163 -5793 -1935 -9953 5540 -6320 -8215 -1456 -9521 4983 9941 7160 0
8734 -1384 -2110 8547 -9629 -9602 2116 -3189 531 884 -6931 1730 192 -3518 -496 0
3910 2380 6290 -7936 -2547 -5763 4752 -4698 9194 -185 2648 -4096 -8269 3064 -4890 0
9776 7234 4336 -930 7586 -3093 6886 -2845 1126 5622 5224 -6009 2066 759 9100 0
-3110 -6125 6821 -9544 -1444 -4611 -3016 -4259 -3430 5527 7915 -5318 9751 3651 938 0
9352 -8239 -4033 -9125 -8363 2901 355 1018 8095 731 -7972 1650 -2080 5893 2883 0
-5368 5837 -988 -6248 9212 9656 -4901 -9078 -8151 -7754 131 -3113 -3410 2190 -235 0
-8517 -7072 5944 9352 -6977 -2779 5405 2126 -3191 9934 8804 -1946 5010 -4266 -8269 0
9652 3300 4121 -1124 54 50 -2518 -7245 877 -8113 7800 5891 -9194 -3938 8108 0
-4520 8364 -8093 1998 -1855 -6324 -4068 4216 -8731 -6786 -8582 5533 -2330 -2439 2373 0
-5953 5829 -3483 -7801 7697 3374 6667 1877 5695 7280 374 -3786 8222 -5773 7905 0
-529 -8926 4151 -4660 2122 -594 -8351 353 -9005 7906 8158 7676 3843 8996 -8130 0
9612 -4883 -3727 9671 6438 -7940 -5380 -8034 -4988 -5882 2927 -3191 -1265 700 2654 0
-6210 -361 -5164 2589 6600 -3015 -5414 -1383 -4780 9193 -9487 4346 3454 4717 -1149 0
-9211 -9967 -6917 -8902 6753 -2935 1286 8205 5251 -8508 9449 1105 -714 -6443 -6462 0
-8391 9837 6018 9967 1564 -1427 -9914 -6088 -7477 169 -6864 3900 6362 -9216 -613 0
-5221 -1443 -6530 2684 3170 -5083 2454 818 -3298 -8744 -9653 -269 -712 -7298 7168 0
-7527 -2528 9367 881 8991 -2369 -1957 8408 4994 -9465 -3011 6233 2842 -8299 -280 0
-1601 2955 9808 -8934 1671 -376 8115 -5060 2759 -4198 1427 4137 6477 4872 7932 0
6465 4678 1702 -753 829 -5694 9568 -7471 9018 -4729 -4255 -5422 -5169 -1002 4863 0
3335 -1236 1710 -7694 3928 -5469 -3673 -8039 7358 1451 3566 5436 7443 -6807 -1567 0
-2267 7347 1758 -1867 -8708 1774 -7631 2429 6002 7842 176 1327 -9175 -4723 -1819 0
-9334 6967 8270 -2613 -2504 2940 -5327 -6087 -7185 9242 -8251 -5566 -5288 5182 7250 0
861 9323 4278 -8617 -218 -775 -7948 -4905 -5898 -159 2058 -1273 6582 -5598 -1413 0
4555 7059 -6417 -3478 -4183 -8166 -1755 -7720 -8316 6819 6447 -7515 -859 -9413 -5236 0
-2564 126 5059 -2886 3217 2639 2881 -9662 -6888 3159 3281 2263 -5254 1144 -33 0
6913 8841 -3745 6906 -5535 26 -9090 4448 2436 -4086 -4548 3885 3925 2874 -3543 0
4171 2911 8700 7750 -2986 -6314 -4049 2129 -7232 8119 8754 -3882 6715 2791 -6707 0
-2896 4330 2634 6859 8152 -7145 2552 -4522 -1283 -9202 186 1169 5401 4190 9990 0
-9795 -5102 -1757 2261 -3501 1992 5543 2522 4579 7629 -156 3791 -2977 -1317 -7253 0
7443 3166 9396 -918 7514 -9336 -7331 -1652 6226 3842 5841 -462 7176 -9631 3355 0
6073 5445 -8463 -7608 -8431 6238 6198 818 -760 -1201 4026 552 -6319 3145 3094 0
-9955 -6328 -4522 1233 -493 -1469 -3252 6388 -5515 -5254 2928 3978 -7286 9104 -1046 0
9341 -5743 -8464 5484 -3243 -1963 907 -3011 9788 -5187 1433 -456 6896 -1148 -278 0
1199 -6501 -9652 1846 2227 -42 2446 -6794 8737 -4672 -9283 8739 -5498 310 6554 0
9046 4551 2811 7288 -9265 -9475 -4857 -8342 -5441 -7761 1429 6563 -7406 -1349 2981 0
5787 6205 1020 -9349 6927 3092 6655 -9975 -7787 3976 -4933 -9635 45 -2916 5397 0
3930 9272 -1387 -3199 -1816 -9043 -1470 7401 -1603 6107 3429 51 -6681 3007 -4117 0
2324 9666 -6253 -8652 -9526 3923 424 -5231 -8398 -1210 491 -2486 351 9316 4922 0
73 -583 1902 8472 -9725 482 9556 4965 -6457 -1064 -5768 -6875 -9668 4783 -3801 0
3368 3086 6111 -4739 -6928 -873 7202 -6574 -4013 -1330 8215 5334 7872 6163 8745 0
-3552 4755 -291 9155 2558 9213 1683 -1224 -7436 5621 -9742 -6245 -6997 -8743 7359 0
1445 6916 7054 2238 5406 -9042 -1100 8651 -2004 -992 -7953 9124 -6665 -1557 1365 0
8310 5656 8818 3616 -7858 -7668 -2858 9206 -3931 7683 -2769 -2627 4463 872 4214 0
-2004 -2409 4229 9302 3066 -4757 7639 9215 3402 3631 -1194 -6508 1524 9575 -6823 0
3603 7174 6630 -4400 -7295 3376 4883 -91 9477 3395 -2421 1589 -8045 6687 2781 0
-7362 157 4983 -9219 9973 2513 1958 10000 -3532 1569 -4366 -1932 -2962 713 9599 0
-3397 -434 -1362 4837 -8880 7599 -5783 1956 -5693 9226 3214 -4661 -7726 -3890 -8179 0
1251 5659 -3867 -9244 3050 -7876 -13 2669 -6423 773 -2060 -7596 -2239 11 -7584 0
-2125 2712 -7085 5789 2381 -6736 -3291 -3294 2709 -1964 -4232 3175 3298 241 3093 0
-9670 -1426 -3957 -4774 3315 9729 4588 -6620 -7943 -3462 8927 -511 -4736 190 3374 0
-6423 6909 4325 -8830 3043 3455 -2585 4028 2385 -9097 4780 6857 6170 5675 -763 0
1770 -7664 8030 -2698 -643 8561 -2376 9306 -5951 1515 -6398 -1668 8136 -677 5567 0
2063 5791 6015 9967 8269 2226 2818 -7674 -4650 -9901 -8264 -8746 4606 5098 9889 0
4827 -511 1068 3208 4606 8587 8822 7459 667 707 8608 2804 -7876 -1655 -6417 0
6861 4500 1140 4244 -2668 3535 7635 559 2945 5220 9277 7088 -9562 -9975 -5184 0
-8098 -1351 -8774 -5190 4700 4952 -7908 8051 -8792 -5368 9466 621 2444 1263 3375 0
9140 5361 -6126 1959 -9859 -7175 -737 9376 -724 -3491 6923 5857 9006 -1760 -8745 0
-4403 2425 4299 6994 616 7081 -5532 7465 -9907 5480 -9120 -6209 -2860 -3192 -2567 0
7521 -4520 6509 4700 5223 9008 2 4092 -6161 -4180 6693 -5322 3460 -5377 5029 0
8848 -5316 -2255 -7342 1567 3555 -8124 4162 -8405 7979 5583 -7698 -8560 8665 -7532 0
7481 7794 883 -2209 6022 8741 6963 1831 4872 4029 -8517 -9705 3863 3873 -9597 0
5123 -6385 3874 -6019 5289 -2219 -2425 -2663 -6159 1669 -4965 7450 -5754 5540 -630 0
9215 -4560 -9902 1467 9264 8620 -6572 -8296 5951 6404 2581 7030 -1550 1117 339 0
6942 -1541 -7959 2386 8986 -9481 -5783 6321 8708 8648 7187 -6138 -9888 9979 -6937 0
4227 -5241 -9610 8448 -7642 -5169 -7722 -3266 3371 4063 8064 9815 -4882 -6487 -4320 0
6080 -9000 -1745 6587 -919 -2383 -8792 4750 -8242 791 -6825 1287 -2570 4866 8911 0
1033 6644 -1522 -2558 4002 -9013 7624 -838 -2280 7154 -8167 -7062 -6320 7128 2275 0
-6406 -3670 -9972 901 3975 -4898 7362 8466 2306 -8731 -1569 -3970 4565 7865 -5551 0
-9296 -512 8814 4045 1791 -3779 3888 -9884 -3065 -1434 -2244 -8782 9803 -5011 -8128 0
1640 -7030 567 8683 9930 -874 4637 3855 9347 9965 -8430 -6332 1484 9307 9315 0
2628 -2754 -7299 -2453 -8315 -9802 8197 3795 -9606 7337 8310 7414 -5516 3234 6065 0
7506 -7533 9022 7719 -4520 -80 5378 -4586 2077 8412 -5456 -5138 2403 9485 9209 0
5683 -1597 6291 3686 -1892 9097 -4918 749 4880 9400 -3840 -6741 -6718 -7071 8882 0
-556 -5106 -2362 -5475 -754 4444 -4954 6946 -7531 -2588 806 -9045 -9409 3929 1851 0
-1007 -3624 -5310 3305 6093 7701 -5081 -6289 -2747 -9765 92 6761 -3132 8838 -348 0
719 5871 2262 -9236 5079 7890 2363 9649 1073 7141 7728 -913 -4681 -4306 9316 0
6752 5806 -3743 -2560 8650 -7321 358 3068 -6809 5989 8578 3509 2689 9500 4858 0
4780 -4683 3201 -6287 -9896 -549 -9608 1729 -7067 -6739 -9713 1959 9679 -6726 5513 0
-7028 -5030 1426 1019 -6263 7376 6312 -5638 8458 5515 6160 -9359 9967 3107 9807 0
-5475 4173 -9937 -3417 7361 9277 -7328 5894 -4650 -2987 9193 -7640 3314 1049 5852 0
7591 863 -1766 -118 3858 1276 261 -8078 -2550 -2615 5858 -5394 1880 -9501 9044 0
-9161 2208 5497 -3 1056 -4288 -4285 3961 -4567 6321 6331 -3204 1527 6129 837 0
-3310 -5430 -368 -37 4483 -4882 -7115 -6308 6886 6216 -6436 409 2512 6019 5159 0
-5072 7642 -7000 8923 -6831 7338 -3939 7169 -5099 4196 6491 -1602 3529 7360 -4852 0
3570 9626 1191 -8163 1113 -2918 2623 -8011 4169 -6760 -4640 -94 -1349 -1744 -7595 0
-4474 305 -6012 7285 5934 9677 -8386 3002 -2499 -9498 -6708 8565 -1721 6509 -7921 0
-745 -3295 -1073 -8189 8122 2677 -4318 -3255 8345 -9728 -8355 -3046 -9753 8565 -7447 0
-7465 -90 6771 -5658 -1931 5003 -1060 -4091 -5474 5501 -1161 5891 5388 -8328 -361 0
-2964 -6376 -6120 -246 -7997 -459 3915 4040 9429 -8491 3346 -9512 -3844 1495 -7784 0
7731 8352 485 -8082 1015 845 -6173 2646 -8272 -95 -8642 5028 -5611 4077 -4433 0
-6242 3795 -9541 487 -7162 7481 -4667 -7592 -8809 -9343 1632 -2211 -7385 995 7842 0
-8076 -5700 8326 -5251 -9010 -8891 -5970 8234 -6496 -6721 9126 4539 9138 7159 -104 0
9212 4335 -1669 -2188 -2285 -8717 4483 7116 2328 3413 6856 -2640 370 9244 -1166 0
1030 -8455 -4109 -4228 -4123 5308 848 -9155 5114 -237 -9935 -8505 7954 2033 -5213 0
3167 -1745 -3884 -5116 7034 8803 2026 2161 -3618 3364 9416 7803 -6258 -4719 -9056 0
-7910 -8430 -6714 -1024 -7141 6011 7528 4223 9337 2611 -6185 7211 559 -4571 -4373 0
-336 4946 -2496 -9711 -2663 -5018 -1417 2475 -8063 9087 -8601 -6131 6696 8846 -7176 0
8969 -3117 7703 6149 4604 9574 9851 -8820 -8128 -7515 1170 -1327 -6151 7320 -7352 0
2548 -8194 9938 -3380 4215 -3760 785 -9210 2100 -7774 -8793 3122 1427 4032 -2713 0
743 -3964 -8151 -7654 2825 3260 -5205 -3652 -7655 -6084 -6972 -2858 -7852 723 -5504 0
