c Random formula
p cnf 10000 1200
-2621 -2813 -6041 9935 6596 -9143 -1081 -6881 -5601 3510 -9229 1862 7671 7736 4072 0
-1641 3954 -5398 8053 9362 1523 -3987 -8387 6953 -8845 9638 -3144 -7763 -2683 328 0
3334 7978 3992 5489 -5380 -544 7815 -5985 8108 2888 8038 9330 -9444 7456 -9182 0
771 -2437 -6555 -3573 -5580 -9719 -8055 -4802 4167 202 -8643 -8965 59 -2895 -396 0
-2220 -6936 124 -4089 4092 7498 7698 349 -4778 -8545 -9536 -8491 9071 -1334 8128 0
-8776 -3616 3292 -388 4615 -7441 -1701 7737 -5239 -7816 -1107 4371 -6958 9727 -3505 0
8014 4286 595 -2963 -6350 -1673 7825 -9905 6239 5901 9103 -3995 1048 3015 4366 0
3109 1872 -1398 2348 619 -2614 6653 -1532 -4218 9916 9873 -882 6508 -3498 8972 0
-2370 -8322 -5608 -3038 -4521 2743 -5685 -1027 3902 -6182 4194 -5300 3159 -1507 6260 0
9911 -2628 -5860 -9050 -8009 5024 2803 1627 -6389 -7230 -1614 -6644 5686 -4850 7404 0
-6338 -7242 8642 6861 -2528 -1805 -1943 -8613 -8129 -8350 -9432 4246 4100 670 -837 0
3394 -8829 2724 5865 2659 -4929 4733 9258 -2514 -5292 -7573 -1842 2964 420 -1266 0
-3904 -3702 8487 -278 -1069 -6779 7741 2670 2369 2082 -3307 -4543 1322 6361 2440 0
5889 6367 3576 5159 -6862 5938 -1035 6341 6736 -301 2358 -3468 3999 -7504 935 0
257 7594 -4770 6906 4422 -9605 3616 4748 -5423 -1772 -3551 4355 759 -9862 -2477 0
9586 -3082 1478 -1721 7552 6431 -7767 -4930 -6149 -7781 -3473 457 7494 -7183 8321 0
-9609 3466 425 3661 -5780 4226 9044 -2270 -3180 -8223 -5634 3308 -3740 -5749 -7927 0
-1152 9833 -6783 -2623 1921 -4843 -5091 1394 2081 -8084 -2394 -3170 -7333 6098 -7651 0
348 3206 -7167 -6719 -4091 -2397 -9571 1238 -9688 6370 -4096 3002 -9339 7005 9419 0
-6441 -9864 4965 6032 424 -5679 -6060 7831 -9282 1173 3799 6489 5339 7483 -6810 0
-2937 9426 -4884 4121 2126 1928 -1870 534 5496 988 4279 6505 5619 -9440 8230 0
-2877 -8130 6079 -1195 1836 -587 4381 -6371 -5411 2316 -3855 -622 -6545 8762 -3388 0
-2079 9848 -9749 -1194 -5091 -7662 470 -9603 -1850 5250 -5484 6595 8873 6178 3126 0
-7171 2160 -3875 -463 -1470 -9199 6769 -5807 -9191 8863 -4402 -2584 -6940 -926 -8767 0
-5451 8856 -7521 8920 -4944 -461 4317 9623 -8572 -5677 7086 -1434 6069 3062 -4026 0
-8537 1990 -1441 5598 -7236 4765 -9913 -5609 -1419 7829 -6535 -9249 -4869 -6168 4383 0
-8892 9099 -2255 -8252 -6299 -9665 -3233 -8915 8596 5928 6647 -7202 3161 -7085 7996 0
7616 -7765 1500 2965 7956 7567 9883 2645 6785 9876 -6731 2628 -5790 -8008 -780 0
7323 -6963 8229 6833 -1731 -9918 -9208 6865 9450 -683 2768 -2850 -4687 -6510 9594 0
-8085 -5345 -2013 7534 -3233 -8639 4150 74 -7330 3945 304 -5695 -2635 -970 164 0
-1923 -5682 -7508 8282 -1474 6477 -6074 -2329 2738 2366 -6612 8811 -2803 -5844 -3738 0
-6007 789 1182 6191 -1935 -5446 8962 -3612 -7453 8897 -5182 -7494 4433 4476 -351 0
-1767 8614 2033 -2885 6369 7619 -4202 -2961 6288 -6170 1026 936 -5512 -7787 -9355 0
1164 2028 -9317 -3023 -8739 6733 7716 1687 -7065 2437 3547 -7241 -8138 8657 4597 0
-9379 -7323 -303 7725 -9089 -6902 -8307 2368 8892 6570 1934 3990 -9341 -4614 -7604 0
-8526 1872 -2799 5218 -5768 7302 7943 2362 -6369 -9488 -3538 -134 -8932 6365 -273 0
4804 -9997 9991 2493 -3581 -4519 7867 1015 6557 2375 -7213 1399 -6903 -1151 3226 0
9618 7121 -9239 -4168 826 -1354 4729 7754 -4007 -4963 1620 3610 8774 -9570 -3383 0
1628 -4967 3678 8508 6764 5292 8651 6072 -3450 -3953 5608 6889 6666 2345 3090 0
230 -597 5742 8334 -5026 -5072 5612 -250 -6156 -6001 -6280 4512 -6603 -5867 5048 0
4054 -2621 -9590 4650 8813 -9727 7075 8814 5499 -6302 -4300 -1683 4601 8797 5073 0
6332 7146 7317 -6061 -717 -8551 -1703 2537 -4169 7730 -5337 -9014 -3135 8992 4524 0
-1138 -295 -764 379 -3409 795 9495 -5368 2127 6099 -1346 -7140 5460 6653 8729 0
4303 9256 5891 4547 -5129 -1039 2679 7343 6338 6310 -2820 5441 6434 -1154 9404 0
-3966 -7732 3462 8379 889 5844 4975 -1886 47 4282 8836 9795 -5740 5703 8291 0
852 7537 -2320 4381 7329 7210 -2021 -3654 -1324 3503 -3325 6693 -8328 7326 2702 0
1884 -970 7117 -9104 4678 4371 -3885 8612 -4826 -9869 3112 -338 -8742 1930 2409 0
5533 6701 -6010 6593 3544 5039 4519 -9385 -8993 -5218 422 -3981 -5692 -5839 -3469 0
-8368 8726 -1333 -9004 1066 -3283 -5218 3628 -4314 1771 -8021 -7756 -8604 -9909 -4737 0
4192 -508 -355 -5289 -943 1559 -6230 -9566 8808 -6212 -6538 -5261 -985 2625 3322 0
2935 -757 1007 -4501 9647 7115 488 -4799 -3812 -349 -3108 6783 -9873 8745 -7938 0
2092 6239 6347 -6250 -717 -182 4325 6196 -3565 -7527 -8683 -6233 -3380 1916 4392 0
-2831 -7208 3916 -4433 -4941 -4088 -6895 5238 -2661 6148 -9903 7983 -5498 7326 -6470 0
-622 -5296 4702 -9090 785 531 6502 -1774 3235 -9655 -4881 -2888 -7744 2055 -4063 0
-7932 -7335 4638 -4194 -1683 1456 4686 -3076 5541 -8594 -764 -8194 4325 -7275 -3841 0
-2246 79 -4840 -1775 2942 -6000 1016 -4243 4681 -9160 5897 889 2347 -7406 -171 0
-4324 -1029 -9401 7823 2378 6700 7732 3273 -3224 -65 7123 3184 1087 4977 7976 0
-938 6952 -2818 -1864 -1297 -6158 -2093 -8611 7605 -2048 -6227 8716 -4163 -2629 -8449 0
9557 4598 6920 4682 8934 -6050 -7598 9269 1784 -4006 5206 6964 -1641 1606 1895 0
7306 -1589 -7287 7298 -217 3674 -6511 -2421 -2789 -4985 9948 5747 -853 9222 -2226 0
9970 1782 974 4411 9151 -7812 2780 -741 1418 -7831 5537 9111 3434 -2775 2698 0
-9409 -9363 3504 1299 -6322 -3402 9702 2584 -5413 8886 6551 -4239 -7713 2202 -7999 0
-5749 -7937 737 -1012 -1700 -9339 2042 839 -5034 -911 9996 2011 -2326 -5975 6517 0
6395 3423 -2172 3040 -7105 -6602 -6828 -634 -9318 -8201 5514 52 -7113 5211 6609 0
2109 64 3744 -7704 -5007 3462 -6465 -1136 7176 5258 292 3838 9722 984 8757 0
-8583 4069 -5332 -8905 -3725 -6877 -1187 -8056 -2566 6073 1473 9203 -843 8348 -6355 0
7680 -9693 4709 -8366 1809 8267 8599 -668 -8333 9276 -1539 -4618 9102 3274 3728 0
-5267 -5300 -3424 -4182 2565 -2777 823 3744 2764 3312 -2534 2081 -5580 -6281 380 0
9159 -1212 -7775 4212 -8406 -6682 2081 8503 2038 -5612 8479 -5081 -2889 -9105 2715 0
4107 -2008 407 133 -6854 -582 -8850 1351 9425 -320 4536 -8564 2540 -3047 5577 0
-6105 -9424 -5455 -8268 6234 -8008 -1006 3775 4716 3529 5582 1380 2566 -5925 1227 0
7808 8108 -8480 -8775 1547 -5062 -4305 2417 4156 5936 -2986 5852 -3880 5042 -578 0
1558 -8132 9631 1863 1539 -1498 -1961 -7840 -7462 -7279 1348 2626 4287 -8488 4385 0
7601 -1968 -6655 1344 -7229 -7822 -9253 1739 2672 -6938 3873 -9744 -8180 -2470 3844 0
1241 -3535 4100 9940 -8275 -1470 -2498 1305 -5786 -9161 2193 -8184 -1364 -3608 -3613 0
-7590 -3493 5806 -3972 1971 4603 3811 -4617 2768 -1308 -9152 6734 8831 9284 -3162 0
-5557 7018 6225 -8880 -2299 6827 5483 4534 8744 -2022 -9305 -652 -5334 2173 -7944 0
648 -6585 -213 -2284 8624 -3968 -5341 -908 3823 -1429 -4426 6537 -1709 9589 7045 0
-3141 5147 -3880 -5692 -5872 -3144 4358 4023 -6106 652 -5710 -9304 1529 3550 8588 0
-3622 2940 -6487 8502 -4992 4421 2583 -2068 -2430 8351 109 -7320 9869 4649 -3417 0
3260 -4921 5206 9642 3588 569 -26 -6924 -1255 1787 3019 2490 -5202 2174 6955 0
-8725 -384 -3255 -9360 -2955 4126 -2059 -4637 4850 -7740 4159 -4282 -4709 9841 4556 0
-6558 6143 9238 4428 2672 -9809 -5882 -7117 6713 -448 2260 -5597 -3255 684 3476 0
-3349 -2434 -8082 7072 -2037 -3568 4595 8011 -830 3747 6426 7418 -6966 -3703 378 0
-8621 7202 1304 -4034 -8634 8642 -8889 817 1233 2648 2223 1312 -2208 5890 -1107 0
9535 206 -8313 -1105 -6979 -4767 -95 -9173 3127 -3927 -4481 7166 2070 7170 -834 0
5573 -7107 -2300 7166 -5923 -5395 1185 -9958 2706 2604 6491 -271 -6099 549 9740 0
-862 4898 -8027 -5794 2257 -6218 3668 4644 1076 -474 -7226 -4444 -9518 7727 234 0
-4499 7377 -7299 -9468 1484 -4722 8015 8353 5810 3173 -180 1142 -8892 -5089 1600 0
7486 -6391 -4277 8585 -6625 -5476 4215 2127 -900 -1356 -8846 -3217 1613 4605 -2240 0
-3534 9130 4170 -3331 1573 3640 9018 -1508 5182 -3722 -471 -2008 -3193 180 -4860 0
-4128 6661 -247 3952 2766 9899 8750 8331 6742 -4202 -9519 -660 -762 2659 4424 0
-9523 -6997 -3454 -2430 -3797 441 -682 -1911 337 6605 -1232 5302 -5415 -7733 -3763 0
-6987 -8237 -8141 382 -72 -873 -8467 -6651 -8594 -5724 -2233 -4908 -7236 -975 -9028 0
9081 -4753 -2019 -309 -2082 -1747 -1460 6391 -9953 -202 1802 311 -9381 -1234 3782 0
-4254 -195 1382 -7791 9946 -2881 -4095 8418 -2259 -6354 839 9369 -7990 -4618 9536 0
-6709 96 -6176 -4626 958 5346 3251 -3324 5573 4635 -4728 5715 6892 -7813 9677 0
3525 5970 5807 -4521 853 -626 -6205 -7568 9488 8043 -2794 6862 -761 -648 -7795 0
6666 -1318 -4850 6844 5481 1880 -9211 6217 -8258 5795 -9747 -8789 -1945 3756 -3893 0
3033 614 9057 8274 2236 -2654 -168 -3693 5928 -6428 987 -1215 -5461 5621 3757 0
877 -9166 1382 2982 4727 -4948 -5753 977 4438 -4264 -1378 5770 6146 -6173 7041 0
3385 6502 -878 6611 -8891 6812 8446 -4221 -970 -3783 2990 3494 -9416 53 2380 0
3136 -6431 -3557 -4042 -2523 1593 2873 1845 6454 -7759 -5038 7378 7471 -3436 -2804 0
3389 -3547 3292 -596 5606 6083 -3299 9925 5267 967 -1551 6110 -3762 3387 -3455 0
7823 -4348 2836 3080 -5393 -1440 1069 -1152 -664 7684 4433 1548 -8529 2533 5989 0
8246 7058 -5280 6551 7429 332 4485 8282 -8492 2539 7665 2952 3271 -746 -5651 0
-1901 4472 -3741 7703 747 7229 -7088 3488 -2013 -2153 -2778 -3466 -8740 1804 7260 0
-1423 -6353 -9263 4384 2536 -9237 2935 3559 3382 -424 7838 1390 639 -5154 3789 0
2307 -4586 5720 -7663 5667 9696 8872 2053 -7216 2226 4602 9527 407 7920 -1125 0
3589 -3680 -7176 -1308 2203 408 1732 6319 -995 -3360 -1734 -3823 -1177 -1722 -3832 0
6726 -985 -3538 6662 -1724 4334 4098 -7932 5964 6561 -6208 4317 -1721 9919 4093 0
8800 -4575 -851 -8494 -3100 1662 9282 5807 2755 3225 -9478 -2498 900 1578 -1806 0
-5690 9737 431 -7833 -9890 -3611 -8129 3201 5335 -9001 8539 8001 -5127 -1206 -4418 0
7034 6175 5872 -2840 -2525 8915 3530 -8793 7718 8694 1041 5257 -7626 2844 -1178 0
3575 -2557 8020 -2148 812 -3007 -2187 3800 4742 9808 -1955 5746 -6606 3743 1200 0
2728 3554 9409 9425 -2993 -2098 8885 -4094 -1895 -875 -8905 1715 -8538 7648 -3698 0
5252 7417 7585 -8549 432 -8947 -2487 -6253 5894 -9449 5056 433 1710 -7743 -9545 0
9855 4194 -4926 6989 -8605 9856 -4387 -6001 9457 3095 -6130 6762 -4142 2150 8429 0
-1850 3160 2179 -3421 -2062 667 1410 3557 9728 1950 7312 2214 1283 -7805 5316 0
4847 -1309 9143 9942 -5852 2926 -4000 8267 6309 -9819 5287 1115 6855 -4303 641 0
-6814 8511 -6094 -8219 -9823 9693 6929 -6445 -4070 -7356 -5411 1941 6482 6830 -5706 0
9843 1947 8924 -3261 3859 9089 2661 -485 -7759 -796 5733 -1944 -4690 5452 -4697 0
-7201 656 -9 -1333 -9317 1353 6818 -975 9532 -2969 9700 6891 4429 5793 -3039 0
6795 464 3638 -8205 -1392 9515 7125 6629 -8723 -4198 9219 -4989 -1697 6700 8562 0
5273 -2520 -2248 -9716 -7410 -5359 1983 -9983 6033 -6786 1227 -7260 -8942 -8717 -9073 0
7721 -2452 -6370 -5267 -970 3863 6851 -8153 -3493 -2640 -6965 -2063 -3530 9190 1819 0
-7218 -944 9494 -2256 4349 -1704 -8141 -54 -4170 9913 6464 7808 -3002 3492 4978 0
2092 8073 -1695 5540 5753 -3280 41 3367 -6930 7103 -1200 -1776 4142 -2292 -45 0
-8515 9368 -3661 2837 2354 -9804 -2560 -326 4807 9485 -697 8483 -9750 -2662 6911 0
-8029 -4124 7116 -7193 -8813 -2975 -270 392 8602 -1088 7428 -673 -1791 -1803 5051 0
-8223 -5829 1906 -736 -54 -6316 2847 -7980 9041 -7274 9713 -7431 -7125 -7694 -9660 0
-6151 -6078 8547 -797 2925 7365 5376 6242 8740 4671 5587 -9628 -9910 -741 963 0
9960 -8989 -7210 -1321 4901 195 -7272 9764 3079 -8149 8092 -1691 -4198 242 6392 0
-664 -4826 9577 -4623 -2907 1634 -1526 -8971 -3548 -1667 3459 8779 7765 4566 576 0
5995 2074 8781 2043 -5641 -7489 8743 2478 -8800 -7246 -342 -6757 -5288 1316 -9212 0
-2440 -4715 2361 -7762 -3380 3243 9063 9665 6199 -576 -4076 -4928 8601 2945 3917 0
2255 8606 -4729 8867 5793 4042 -1474 9293 1458 4265 -4062 -2866 8984 510 2451 0
-807 8428 3966 96 6375 9683 5580 1125 -3668 -6072 -5480 -6438 9780 4797 -1 0
4139 9438 9895 5266 2501 -2648 2062 291 -9466 1684 2697 4413 5494 -3956 -7514 0
-4480 5077 7312 5497 -8917 -6991 2496 -1584 615 -3759 4249 969 -8195 9305 -4281 0
943 -3648 7775 -117 6862 4070 5218 -3290 3985 -2367 -600 5268 -8842 2858 -4074 0
-1082 -5427 3855 3084 -1353 -8581 -7662 6200 -5803 -147 -4511 -4956 934 -7880 -8437 0
-2160 -6088 -1659 -4576 2936 4861 -5519 -4694 -3753 -2531 -7296 -2965 3203 5655 1340 0
6922 7057 4611 -4431 -3798 6912 8084 3190 8565 -439 -9987 1839 -2208 -2918 6407 0
-8617 2486 3391 -6085 -9250 -2915 7076 4005 -812 9341 2549 -9971 7573 7230 -249 0
-8291 7817 3576 6854 1406 -777 -3501 1583 -622 47 5062 3301 9297 1307 315 0
-2319 -3497 6048 -4408 -7786 7926 5502 -3000 6513 -9045 -2070 5200 -7131 4344 -7154 0
-1974 2387 8597 -838 3322 -2749 -620 246 -9531 7030 3383 -3207 -1905 -5257 -7883 0
-9603 -718 5287 1819 8187 631 1122 953 1523 3653 -4446 -7337 -2103 7446 -394 0
3449 3968 -9317 9129 -35 3281 -5372 -3836 9682 -2571 5612 -8230 6698 5680 -9684 0
-7220 1768 2071 -7321 -9466 7283 5695 8440 -7303 -9887 2287 -5474 7657 -6090 -5858 0
3005 -3116 -6628 -2294 -2494 -7938 7919 -7347 -3566 -3191 1777 9776 3841 -4979 222 0
-4761 -3233 -9871 -421 -59 4842 7633 2016 -5278 -1762 7892 4776 5709 -6735 -2525 0
5329 -2755 -1598 4609 -1465 -6946 3715 -8806 9121 3054 9729 -4895 4747 1226 -8403 0
4375 2712 -1983 -8207 -314 -9986 7039 1204 -5467 -925 -8456 9208 9440 -8837 -4812 0
5639 -3404 -3848 -6929 -6374 3126 5719 -3158 1032 6306 3570 -7205 7699 5838 5013 0
-8429 -2625 -972 1860 -5919 -6989 -221 5694 -2276 2916 8998 -4035 1246 6764 -1888 0
3843 9044 5781 -6587 -3601 -6013 -8567 8982 -6763 7693 -934 5729 -6526 -6727 -6397 0
-6119 -2993 -4033 -1541 4787 -3987 -7292 1242 -5989 -7234 8826 9543 -7648 7548 -8577 0
-3879 626 279 9933 -5182 2924 -9284 9760 9965 2622 6866 -1256 -8506 1094 8001 0
-3876 2052 7962 -8118 -9014 4229 -8120 8990 -7936 6140 2223 4701 3628 -5868 5893 0
9407 -2485 -7587 -3774 6913 -2602 7121 8418 1850 -5320 8428 6866 7446 2479 5636 0
963 9230 -6727 18 3665 -7149 9030 -9162 8690 2117 269 -6919 2188 794 -8440 0
-5791 8092 1219 -6610 2263 442 9361 6184 -2380 8509 -1513 304 1166 9897 624 0
-5493 6694 5333 -6271 6962 -5175 -3666 -4602 -7854 1 -9745 19 8735 -8876 -2881 0
-7780 -2718 4361 5505 7846 -2337 7500 -4414 7695 -4908 2579 399 7983 -5109 8317 0
-3405 9726 -3490 6680 -532 1354 7700 9798 -563 8303 8184 -5202 -970 6042 7425 0
-5950 -2833 5859 -1466 -2409 -3418 83 -7608 -6213 1180 8103 5443 7775 7197 9222 0
2730 -9006 -1667 -4948 5598 -7240 -6962 9284 -7448 3638 -2007 2029 -9601 -2868 -3569 0
-5526 -6569 797 1734 -2749 -3146 7271 2516 -729 1197 7461 -2490 6305 7587 4369 0
-6904 1769 -2675 -4214 -3839 -5536 5987 -5504 3846 6905 -924 7374 9266 -671 1711 0
6609 8077 -4908 3712 -106 7722 9686 8470 -4519 -3244 1024 -2379 547 9553 -182 0
2211 -7129 4525 1444 6534 -3584 -8522 9213 -7741 7808 -7595 -4884 -1092 -1481 5180 0
-5267 4198 5197 3969 2008 5403 -3601 -9916 6718 -1408 5521 8471 300 -9301 3432 0
6885 -4387 6529 -7068 -7632 4453 1489 1853 4254 -8150 5338 9099 9033 -5940 -5518 0
-715 -2073 -3606 1529 2700 1180 -5181 9294 2822 -4208 1040 -8676 -1259 -5255 8101 0
7504 -2296 -1044 -3797 2859 -8566 -6859 -2365 -7436 823 2322 5605 -8398 7264 -4643 0
3902 4017 -6915 3032 6745 2534 -2572 9096 -6305 -5590 -9953 -1466 5946 522 -5659 0
-8639 1051 4293 9690 -2179 4645 -3414 -5646 1545 -759 8751 932 -2183 -4918 8333 0
-2845 -9527 -842 9646 -8211 -3658 2439 1185 2494 -4764 -9214 -3303 -4759 -4773 -9068 0
-8676 2031 -1575 6157 1654 2815 -2305 8559 -770 -9032 5116 5716 -5250 -4485 1703 0
2855 5152 -8867 -9351 -6318 -6225 3155 553 7014 5450 -2026 -1365 5192 4194 5449 0
5842 -1869 2978 3545 -6786 7357 1653 4977 -4491 4596 3893 3634 3132 9641 9391 0
-6057 -6385 -1521 9483 -7639 -5883 4378 -2591 -9473 -9448 7849 4107 9842 -6041 -1906 0
7716 -7785 3984 1647 4784 3182 3597 6555 4133 7664 2484 45 5342 6689 954 0
-1357 7871 8712 -6733 179 897 9131 4314 -8360 -4553 -5173 8372 -1687 5344 9590 0
2361 7902 5258 2827 3831 -2899 -2774 7500 -442 -2393 7486 -901 -274 -9300 5685 0
-4615 -14 -9106 1934 4185 5997 4097 -6246 -6601 -1735 -1078 2347 -8924 7312 7890 0
-1955 4391 3631 8117 8081 4169 -9777 -4089 7552 -7791 2967 -9659 2126 -8238 5878 0
4725 3495 1638 -346 4605 7670 -4117 -8427 8752 2175 9242 1341 7043 5666 -8835 0
9378 -1990 -1148 3614 7487 -840 3294 -3583 -9417 4378 889 -5811 -7636 8940 9008 0
3194 1770 5018 -6070 -8708 -8894 9870 4718 7012 4345 9626 -2236 3985 -5492 1708 0
-2724 1020 -7841 5544 -904 -279 -9329 1906 -7982 -7172 9311 5758 8860 -7852 9419 0
1861 4290 5411 6676 -8968 -1243 7862 5350 3895 -7583 -3765 -4208 6660 7037 7998 0
-5518 6002 4346 -4251 -5847 -2767 -6669 1222 7448 -4020 2208 4805 -5276 -8941 -3932 0
4758 -4461 216 -3573 -4707 7937 -2237 4638 -326 -167 7456 -9790 3411 -472 4697 0
-3175 -610 -5662 -2198 5015 6852 -6393 -3253 -9200 9934 1243 -8320 -2954 7906 -966 0
-8418 7916 3123 9894 729 1885 -4561 8757 5716 -3475 6066 4097 22 6721 -9071 0
-5447 7045 9060 -9523 -3 6625 -9111 -7545 9964 -1390 5216 -6342 3735 -1130 -1291 0
-4386 -7317 6219 -1144 9723 5483 -9211 8490 9689 -1497 -4809 4001 8829 -1816 -4811 0
508 3474 9476 6358 7945 -4222 8215 8059 -5060 9099 9631 8144 7311 -2493 -6947 0
4471 6224 -4673 -1713 -182 -8137 5153 2447 3167 4228 -9511 5567 394 4054 -5676 0
9897 3173 1699 -5360 5578 4819 -3350 7131 -176 -1409 3837 -1085 1845 -1015 -950 0
7003 5536 -1673 4907 6723 8926 -6835 6302 -2020 -5642 -1613 -5833 8719 8207 -3090 0
-5514 4221 6712 2840 1432 -4258 8096 -3181 -9512 -8866 1719 7991 665 5387 -5481 0
5477 -5799 9068 -6203 -6695 7226 -7 8625 -2353 391 3674 -6337 2050 9205 -6940 0
-3338 7659 -5036 8229 -3568 -4654 3801 8844 -4531 -5951 -5577 -3996 9699 -591 4324 0
5995 2394 -5227 29 1106 82 4152 -1302 -2952 5105 2307 9803 -4235 902 -5029 0
8034 -7774 -470 -1474 -491 -3203 6161 5055 -6503 2958 -7963 4495 -8194 4557 -6463 0
-7528 -1843 -6629 -5086 -3940 7368 -6747 -2117 -4783 -9242 -9988 -1264 2245 891 6929 0
-6421 7424 -6697 86 -8951 3915 468 -9669 5926 -7850 -6857 1879 -519 -6170 -6680 0
-4587 -1793 1658 -1675 -6930 2920 8270 7727 4041 -2897 6942 1047 6742 4184 -3315 0
-272 3474 3394 358 -5941 7032 1740 9318 2117 1027 846 -1157 4147 -7571 -6903 0
7855 -4267 -3792 8670 365 -1643 -5904 -2963 -1063 4706 -8360 -7963 -5588 3504 8507 0
-9306 9211 -1728 4967 -2833 2076 -3049 6066 7509 -8607 -7963 5825 5476 3107 233 0
-7942 6746 9054 398 -1282 -52 -2949 9878 -5154 8118 4335 6652 7229 3599 -6647 0
1632 8801 2956 1674 -7224 -7176 6423 8152 -2901 -2227 -8684 -4043 -8999 -8568 7769 0
-6987 6734 748 4609 -3942 6762 -1986 2569 1860 6145 -4524 7398 -7266 -385 -5517 0
6918 3931 3207 1019 8121 -2532 3750 7103 -6943 6520 -4693 3807 9353 6605 -8137 0
3569 -6824 -4560 -3314 1184 9373 5277 -8457 -9039 5508 6468 6664 8106 -3666 -1463 0
2705 9926 -6092 1665 2440 -5302 7292 9968 -7382 -9073 1762 7768 6433 683 -4425 0
2415 1247 -9342 -5617 -7402 5384 -5357 -3430 -5608 428 2948 9027 -1163 -4395 -7063 0
-3512 8747 -205 9591 8432 3765 -50 3411 -2556 -7664 5163 1685 742 -5584 -8560 0
-6700 6664 -7150 -3090 -4356 -5235 -2494 3554 -9940 -2748 8752 -8829 -4205 4930 -1084 0
9649 2412 77 -3766 -7521 -9497 2117 -5182 -4692 1601 -5734 -3440 1662 -3562 -7778 0
1470 3809 -6493 4428 -7610 7676 2111 9240 3465 6118 5980 8072 1458 7628 8205 0
-4974 -4992 9103 -7906 -501 -7558 -6280 -1815 -878 9418 2915 1059 -8270 8674 -1050 0
-5036 -6132 2304 -1545 -4565 -166 -3809 3531 -2071 -1837 -3804 -4775 -9079 -3543 -640 0
3869 9194 -2211 6288 -8895 4165 -5155 3587 -1287 -5438 525 4062 8072 -572 3820 0
-7914 9985 -2786 -8034 -7205 -3862 5674 -7463 -8377 -4771 6062 8954 -9090 1413 -7434 0
-1776 857 5417 -8772 -5208 5242 831 1888 -7231 -4394 -8611 2835 -9796 3024 -4946 0
-5446 -7527 -7963 6881 7785 -9791 4890 4944 -279 -8782 2826 773 2571 7915 5453 0
4872 6148 2004 1438 1077 9956 -7681 -9756 -1197 8938 9482 5828 -8741 -6550 2893 0
-3194 -8988 6056 -8285 5983 3733 -4248 7549 4587 -399 7176 143 -6628 -38 3451 0
7716 8994 -7004 -2443 6449 7101 -9568 6104 -7858 -1404 -3868 -8957 -671 386 -4483 0
-4789 1093 9043 -7617 9983 -8430 -4297 -9803 -6620 -6368 9953 -7523 646 7799 2951 0
-154 1924 1744 -4539 9241 220 -8667 -4004 -984 -6621 5879 -6438 -4244 4880 -3031 0
7083 8025 8262 5789 1134 7367 9742 3854 -5904 -404 -1100 8381 -1540 -9886 -2986 0
6278 -3704 7699 -9996 -477 8122 9941 9268 -8368 -6479 8848 -5466 -2013 3386 5715 0
396 -2829 9235 9233 -2001 1890 -9682 8733 1877 5503 9200 -5825 -871 -9505 8095 0
-6114 -3935 -7863 -5577 8113 -4549 6101 2753 -2692 3719 -265 -1093 -6749 -3497 -3808 0
4690 7478 8533 -1962 -6866 -3349 6490 7227 -4348 -4977 9068 7002 7651 4746 1894 0
8820 3253 7282 5331 8190 269 4326 -133 -4195 -681 9688 8807 9123 -8241 -4567 0
-9550 -830 -6390 -5873 5930 -5154 -7511 601 -3536 -9388 -7464 -6627 -4141 8809 -7698 0
-8885 -6229 -3453 4364 652 1153 7784 -7151 -3790 8334 3581 -194 -3159 8136 4517 0
8822 -5004 -6821 430 5737 1186 -8028 -8501 -6013 -7849 -923 9216 -1980 -7675 -9484 0
-8160 -7793 -3496 -9249 -7313 8389 3621 428 -4253 1227 4079 -1696 -9022 -7003 -1895 0
849 7089 -1380 -3068 7882 8227 -1501 5552 -4770 -423 -9966 -9065 1874 1944 2196 0
6320 -1418 6119 1021 -3676 3606 6200 5662 -7003 30 3423 -8981 -6400 -5768 -6184 0
5317 -3636 6333 7819 -5631 49 9107 -9702 4527 -4688 8590 6646 -8293 9221 -7907 0
-8309 -5955 -3503 -3167 4715 5113 1135 -8391 4586 -7954 -1826 6016 2569 4892 1847 0
-9758 -9633 -9366 -9764 -7883 2593 -8407 1774 9225 -2982 2014 -3314 -3389 9766 351 0
-8295 -5152 -7263 1949 -4681 9427 8171 -9089 1351 -5022 -5606 8378 7824 -8896 -9110 0
9898 3151 -9272 -9599 -8089 -1335 9288 -5125 4574 -7354 -3669 1225 5804 -467 8757 0
-2526 2543 6378 -997 -3678 -8829 -7251 3891 2714 3573 -3054 -5301 -8778 5065 -9392 0
7271 9628 -3923 -4983 6046 9498 -8124 8289 1343 7664 2210 -6248 4727 -7535 8625 0
-5184 8856 -8559 7528 6586 -2110 -7071 407 -2387 4148 -2066 1415 5081 -1862 -2048 0
4269 5036 -9095 -8146 5220 9143 -935 9993 -3721 -7372 -5654 -2814 7669 6776 -7205 0
-2908 -9735 -6773 4384 2061 3237 -7421 4781 6567 -8615 6202 9901 -2088 6413 316 0
-5876 4844 6389 4066 -2239 -3668 -2853 -5095 -4314 8466 -3540 -8463 208 7362 1799 0
-6777 4602 -6423 -9716 4593 -8160 -9491 -9518 3218 -3932 -236 -6940 7945 7549 8834 0
4390 -8361 -8883 3218 -6713 8456 -4792 8793 -7023 7140 -751 3070 3768 5308 3323 0
9038 -6840 -4827 2158 -8036 -1311 7340 6875 7953 470 6741 8556 1326 371 -5951 0
-8694 7466 2923 -5694 4490 -5214 -3573 8655 -4079 3081 4313 -6972 1183 -8370 5064 0
-4522 7464 -9415 -6278 2174 5253 -1641 -7038 -8949 9355 -9803 -2236 3611 4822 2340 0
-4959 7196 -2876 8168 -5042 -7050 -9433 -6542 -6646 2509 -6539 -991 9606 9506 -5586 0
7131 9284 1621 3612 -183 5599 7149 -9474 -8903 -4752 6086 7534 9328 -8950 -1581 0
-532 7937 567 9540 933 5545 7050 -741 7295 -9991 -8839 2437 9586 4138 3199 0
7553 908 8938 8519 -2530 7333 -7923 -2444 7912 -5400 6109 7631 9845 -3693 -2400 0
-4084 4976 -3505 1681 263 6649 -1525 5168 -3956 -3172 1683 2479 -3029 -2591 1761 0
-1552 -3033 9749 -3651 -3325 17 6578 9650 1307 7667 6591 2506 -9202 8309 -5143 0
-819 -5196 -7158 -8449 5211 1088 9601 9478 -9416 -6096 -1864 3000 4876 -4983 -8307 0
5522 143 -9394 4726 9143 9192 -7185 6803 -122 7685 4696 -1689 -8965 5564 -3027 0
9267 917 104 1481 -9693 3896 8532 -4935 -6984 -2746 5504 8942 2061 4079 -6101 0
4221 7618 1835 1391 2412 9736 9681 4042 -4027 4502 -9690 3238 -5249 1135 -6567 0
-5247 -3564 2944 -3225 -8907 7999 -7651 4352 3318 -476 -9732 -8995 -9459 1675 -6048 0
9380 19 3070 5055 -1403 -6938 -6061 2002 -6788 -9235 -5937 1570 -4454 9569 1453 0
135 -8647 8033 -6812 153 2091 -9015 -7707 -2489 -2939 7582 -987 -8583 -5265 -570 0
2266 -5814 -5827 -3084 3695 8569 1806 7098 -4707 -5133 -5880 -1671 1072 -4914 -7962 0
5234 4238 7013 -6813 3806 355 1816 -2552 7185 8618 -4706 -656 -2475 9302 5189 0
3055 5474 1464 4273 6464 -293 6525 -7718 614 -8412 -2757 2842 9930 1750 8221 0
-1217 -3102 -6426 -7022 4086 -7865 -5284 -9031 -9720 -143 7529 5467 -8818 -9736 -6010 0
6008 5532 -4316 -9498 1105 1653 4405 -8076 -8753 -2951 -9236 -540 5725 543 4506 0
9583 875 2968 -8454 3738 -1048 -4463 9939 5984 -853 -3301 -6714 -6711 -8649 -5791 0
458 -8440 6293 5219 6254 -1477 2063 9904 -6492 3949 -6718 -6692 -5181 -6081 -3920 0
-9766 7020 -9666 -7739 3559 -9507 4546 2215 2779 -7654 3219 2858 5299 1218 2482 0
6460 -9532 -3510 -6672 -588 6798 -9371 -7336 2168 -9969 -5434 5777 -6575 -2982 1315 0
-8083 -5156 -9359 -2204 -5452 -736 -1163 1747 5730 -6569 -720 -1612 -6065 -165 9785 0
1628 2684 -2021 -5138 -6957 -6744 929 5459 -9805 -6601 -5115 7804 -3827 -9701 6838 0
4415 -8090 7618 -7379 9189 -1983 -1534 -3645 -5584 6550 76 2471 2493 -3034 -1091 0
9815 5292 -4260 -184 -798 -4800 2938 -5146 9036 -1406 -3009 6219 8300 1301 -492 0
8117 -2030 6785 7037 -3456 -8454 -8760 -3927 1112 3944 -3085 4753 1565 8651 7057 0
2340 6182 -8235 8258 -2728 -3182 3312 -5297 -7897 362 -3017 9932 9973 -34 8015 0
-1957 6276 -4097 -3842 9972 -8335 6445 -4525 3034 2027 1347 7469 5426 2115 5995 0
-9296 -4068 6723 -8479 -1712 4890 3504 -1320 -1091 -1876 -7207 -5782 2083 -5072 -9327 0
-6814 -4052 -8388 7352 -9439 6720 6070 5529 -3878 7701 -9541 -9475 6467 -3117 2481 0
7116 8959 6785 -3493 -8589 5842 -6882 400 6798 -2360 7530 8579 -2212 -4749 5237 0
-8861 -1167 -2875 8609 -8661 -3093 7285 2759 -2696 -5023 200 4706 -1564 8558 -8972 0
-8984 4963 -4324 -9361 2994 1257 9649 1988 3483 -4323 -1737 -3327 729 -7693 -436 0
-9785 -5596 -2392 6538 -6260 -3822 -6608 -2205 -3810 3433 -8526 873 -7768 161 -9570 0
-4965 -2631 5035 -7067 5302 -6643 4346 -5333 3570 -8374 460 5415 466 9289 -7653 0
5852 -3493 -8303 3494 9913 1163 5225 4483 -4907 7286 -2056 3747 -2885 555 8426 0
-5566 -5196 2546 -3307 6086 -8946 5514 -9781 9350 -8041 6803 462 8374 -2209 5141 0
-9572 2034 -8393 8676 -5684 -9532 48 -5057 6521 9953 -3109 -3452 6175 -1472 7572 0
-7872 -9640 -1662 3763 4716 8039 -1517 -602 6310 -1773 -6117 -1643 -1917 255 -135 0
8837 -942 -6344 -785 -8768 -9618 4964 -197 1297 1474 -2295 -6277 5000 6569 4667 0
7455 8293 2350 9736 9049 8722 -4706 6813 -183 7288 8819 -6055 -1423 9784 3571 0
-358 -6351 -6099 7414 -3633 -9451 1174 9221 -2934 -3067 -1031 -3522 -4155 1677 -8317 0
-6156 9452 2369 6731 -208 -9705 4606 -8223 -1818 -8927 -1415 4251 -8310 -1285 7600 0
-8521 9992 8057 9690 -3922 -7915 4838 5916 2615 4809 6656 5834 -5142 -1562 3970 0
8469 3054 -123 -4302 6522 6252 -63 1545 -1026 -5007 -9365 9643 -106 1902 -4699 0
-4367 -9609 9075 -9679 -6547 2123 -7699 -6520 4262 3531 3138 8075 6734 -5012 -6631 0
-9740 1958 4909 4933 8717 -3322 8713 84 6085 9734 221 4739 8664 -2685 8220 0
5953 1805 5199 9075 -8633 4222 -9203 -7809 -5212 -1064 8137 421 4805 -160 3035 0
9314 8040 -7015 1465 -69 2590 7565 -4847 6170 -7294 -5754 5051 -4920 7091 4056 0
4055 8945 -4261 9836 -3484 805 2918 -8208 3478 9793 -720 -9822 -6416 -285 8866 0
5663 -6185 -683 9000 5101 -2911 2648 5210 954 5738 -1472 -9541 771 -8147 4743 0
-9402 -7341 -7055 6526 1168 -9228 4920 -6193 -8601 -7725 -5570 289 -5220 -381 3806 0
-1958 3026 6461 -4853 -5938 2333 -7564 -3264 253 5447 -179 2006 7663 -6121 1271 0
3874 -8787 7417 -5405 5177 7952 8813 8694 -6941 9201 8943 2286 -287 -1388 4204 0
-5344 -9931 8312 -6936 3341 -1089 1712 3228 -8657 -9859 5547 7828 -886 9168 3278 0
5242 -5459 -6142 -1832 6637 5077 -6890 -9955 -2231 -5269 7180 -2837 2853 -7412 -8543 0
-6358 -2610 -5090 -5079 -3548 2117 -7594 -4980 -5675 8709 3192 2373 -5628 7722 -4415 0
6192 5674 -7760 -7689 7224 -8323 -5611 -3541 4301 9156 -2467 -8296 144 -4475 4122 0
5416 -5144 -5613 1063 5305 -1316 -8832 -8497 946 4358 -7598 -7633 -617 -454 -8188 0
-5523 -3589 372 -5396 -949 -4133 1951 -7296 9186 -1050 9497 6246 5536 -4372 5676 0
-5545 658 -9525 -5144 3194 4013 8417 3676 6394 -4696 -3580 -6700 -9048 4795 2610 0
2563 -6775 -126 -7615 40 -1953 -5999 -5286 -1837 9995 -7331 -7057 3964 -2486 3766 0
-1396 -5530 -2053 -7066 6910 -8767 9926 877 -3272 -2739 5749 -6363 7514 9028 -1907 0
-9114 276 -7371 -1636 2615 -3458 7292 8229 -2646 -6751 3601 -6589 6028 -1243 6523 0
-7861 -8441 -2634 -9200 -9561 5058 -7578 2720 -3091 -9623 2533 -6619 8354 5122 9393 0
5415 -2520 9897 3225 -7504 -2320 -7823 9214 6313 4977 -3101 6714 -919 9960 7801 0
8767 1985 5272 6370 8124 -5889 -2463 -1966 -3424 -7728 6613 -5837 233 -3592 338 0
5903 -1797 -6133 -8264 5745 -5540 -2000 -6065 -7458 -8137 -4664 -4677 3419 -5495 -5006 0
9395 -1153 -7124 -153 -4688 4094 4911 -6604 -8486 -7205 9094 3979 6578 -5238 -2545 0
-3309 8237 5509 -3373 2625 577 4357 -8642 8345 -8301 -4300 -9367 -4230 -3871 -3627 0
-2044 896 -5307 -4386 -3409 2157 675 1040 -3339 -4493 -952 -7099 495 2384 669 0
-435 2131 -963 -3513 -5574 410 3397 4403 731 -3941 112 -8427 -6962 -8684 -229 0
6388 -4986 5155 586 -7234 -8623 -6801 -2713 -6108 -1145 -1312 -465 -7236 -1391 6680 0
-7529 3947 -7172 4091 -9918 8420 3991 -7916 -1419 -2622 -5203 2021 -1272 350 2800 0
-1016 6424 3455 5176 7125 -3840 -9888 -3899 7014 -2032 -9287 -4965 -9224 1697 -8178 0
-9235 4663 2600 -8971 3354 -2072 2271 -9913 -8332 3821 5430 3062 -9392 7928 3125 0
8763 9811 5947 -6121 3629 -1766 -9592 1536 7601 1144 -1608 1494 -6922 -305 928 0
4977 5833 9426 1322 3148 7935 -6245 -5343 -6171 980 3915 -8406 -3081 1643 6573 0
1451 3390 8019 -480 6538 6389 -6764 4156 9427 -9712 -880 -9447 4786 -9170 2971 0
3924 -5654 -6029 -6336 -467 4974 -8185 -1081 -8051 -7653 -9610 -1374 -1104 -5413 3861 0
2719 4464 7439 -871 8332 -4330 -4674 -6310 -5647 9204 -9261 -7132 1089 -1606 8468 0
2370 -3804 -3208 -5789 -230 4160 -2631 5443 -3644 -6191 -626 2397 9864 -5728 4580 0
-7992 7066 -1744 -8698 -6232 7464 -2852 -3685 6209 1521 -9611 7752 -8926 -7854 6223 0
-9883 -3760 7131 4473 4929 -9528 -2535 2109 7357 -5478 -7224 -8929 8249 -6143 -6768 0
7091 -7574 9577 7764 -3652 6022 3251 -3872 -2573 9482 -3824 8954 -5002 -7818 6432 0
-3090 4323 -4597 6858 6502 8537 -551 -4317 4739 -327 -7058 9139 -6617 -8194 -6580 0
3726 -3388 4777 -9166 -4615 -4429 -3898 -3419 -2668 -3178 -2917 -7361 1045 7177 -3636 0
8413 -6355 -6363 5642 6901 9737 -553 -10000 5427 -3938 -8641 -9862 -3931 1068 4577 0
-8128 1391 2485 -1558 5633 -1200 -5738 -6308 -829 1234 178 78 9658 -1395 -8478 0
-5993 -5092 -8407 -7387 6460 -9631 -8295 640 -3131 -2707 -3572 -7223 1721 -4586 -3103 0
6544 177 3287 6898 4458 -9566 -4801 -6675 5076 -6292 -9055 2514 1033 2923 -899 0
4485 -3110 4093 -3015 -9608 -2255 -4373 -5969 238 -5574 -4933 -7002 6752 3626 -6577 0
9434 2274 8970 -2527 2981 -9179 2560 -3384 9456 9382 9741 -3152 3433 8204 166 0
7663 -4792 1432 3716 -9282 8764 9178 1753 -151 -6726 247 3958 4960 6632 2450 0
9246 5140 -8690 -3596 -4539 -6547 -9936 278 173 -4027 4393 -6587 9717 2763 -6379 0
-4227 -4660 -1186 4439 -3059 2737 -8830 -5330 5279 -7774 90 -3012 7631 -3456 -7332 0
1471 9888 6525 2464 6873 5926 8165 2666 -737 -8189 -6672 -1242 -949 -7630 -5395 0
-7554 2394 4556 -908 9869 5149 5518 -7226 -5766 -3031 1180 3947 -2038 -4946 9222 0
-5291 -3747 -1293 -215 3027 5419 -5309 -337 -3374 1252 -3403 9523 -5092 5901 4524 0
-7181 -7198 -373 -1172 5421 -3425 -8141 -7471 -5009 -7462 1924 -9490 6247 -5962 1345 0
5514 -1297 -9834 -8014 -4321 -8855 -8877 -4875 -6479 -8269 -1384 -9205 8073 2953 -9999 0
6022 -1733 -4037 699 6843 3845 -2349 3432 -2136 7352 -8809 8004 -2335 9084 4032 0
-8342 8652 3444 1453 -5387 3200 8338 6991 -1058 3070 -6202 -8653 1881 -505 -4587 0
6794 184 -7078 -6110 -2170 7585 5225 -8866 -8706 3703 1644 -2767 1245 9528 3043 0
722 2143 -1252 -8805 -7589 9442 -9592 1958 235 4216 -6505 5526 8570 -9019 -4151 0
-2474 1317 -7554 9577 8693 5917 7388 5323 -6027 276 -6653 -2619 -7869 -303 7271 0
-8797 -9001 -9019 4577 -9120 9664 -7122 5749 -2080 5744 -510 -1187 -9715 3236 3617 0
-770 -8700 -9882 -6973 1731 4925 -8187 -1932 7653 -4923 1544 2911 -8818 -6562 -2716 0
-317 8266 -2415 9193 -6704 -2667 652 -3992 5268 2122 -4418 7258 6980 1354 -6237 0
9578 -5033 -2554 -172 2083 8929 -2413 -4309 -40 -3708 -1833 -5731 281 -1351 7872 0
6869 3338 -6748 -8559 8081 3642 8687 2330 5292 1391 -4591 6405 6315 -9330 -1169 0
146 4033 1952 5981 1229 -2506 2331 2875 -7253 -833 57 5075 -6751 8972 6512 0
3757 3747 -1392 7268 -6852 7441 319 4567 2431 -5539 -9641 -4987 -3683 5644 2683 0
-8483 -4794 -8619 1322 -5152 -3347 9026 806 -6519 -8119 6806 9746 -7507 6327 5403 0
-9741 7678 -1705 4499 -1471 1628 9643 -1101 -8962 -9635 -3114 -6137 -8849 -5265 1314 0
1492 -577 -697 9682 2253 -3657 3813 2756 -6231 1108 6246 -1427 -348 -3713 6244 0
-5702 7084 -1786 178 -3486 4513 8165 8355 3959 6355 5522 -4194 1436 9108 3204 0
-1643 -1397 1551 2217 -1461 -8237 1079 -4309 4650 8200 8529 7119 -7529 -5382 -7626 0
-252 -1532 -370 1240 7322 8149 -8130 -5179 -9811 -3409 8671 -5805 4255 -1879 68 0
1829 3876 -1377 3236 3127 -108 3554 459 -7358 -5772 1339 -2653 -4897 5132 -7456 0
-9338 -5323 -7613 6108 -9975 -2286 -9073 6945 -2894 -1193 -657 -86 2972 876 5574 0
-4018 -4027 7129 3324 2156 5937 -986 -1707 -9164 2510 9717 6979 7647 -7553 1188 0
975 5088 1374 4865 8113 8546 5886 1716 4375 -8461 4135 7237 4285 7555 -6501 0
8967 5183 -4472 -9743 -7190 -9541 3744 9600 1238 6519 7284 2872 4719 -9142 -1906 0
-2826 8614 -7091 6379 7693 5087 -3079 -2834 -6541 4962 2749 -4300 9888 1181 288 0
3937 -4702 -2865 2026 -9735 794 9137 -2578 9284 2751 4192 8159 4709 -2706 -7047 0
-9760 -2425 1887 -163 5307 -9676 6055 -7765 -7939 -6074 -4390 -6414 682 4988 9801 0
-4809 9131 5156 1848 8235 638 1917 -6450 -3897 -2608 -7344 2267 8004 -6377 -6498 0
-7845 -2754 8870 5059 -24 -3617 -1887 -6863 7919 9951 482 5770 -485 1719 7116 0
-6700 2333 -8311 -4413 -3169 8044 5061 6836 -7943 -7297 8867 -2657 -1801 -1965 -1765 0
-6262 -7913 2225 -7032 4014 -8004 2012 994 2089 9193 4699 -6780 -6427 -1354 -830 0
670 755 3080 -3464 1136 -2431 -4147 841 -1304 -161 7676 -6090 9938 -8660 -1740 0
5236 752 -3110 -445 -3223 -2956 5575 1623 7675 -6527 5014 5021 5529 -6877 -9570 0
-7970 -4593 -992 -9328 -4544 3698 3326 -4 5013 -6594 8938 -2341 -8480 -1141 -7993 0
-8805 3400 4412 3519 -1444 9665 1627 -1542 3728 6414 7021 -5990 -8752 -9311 9084 0
5923 -6923 -5163 524 9746 599 6148 733 -6648 2876 331 671 7748 -1677 -3827 0
5769 7111 8222 -1659 -9588 -3522 9862 6165 -7352 -7733 4841 1366 -4423 1630 -3995 0
4496 5145 2859 3013 8124 4108 290 -2905 -3284 1984 7188 -9776 -2960 7181 -5381 0
385 -1487 -3162 403 -2011 -3847 -2754 -8821 2214 -9282 -653 -83 8678 -7110 7322 0
-9618 -4776 7462 -3715 -221 -3836 5007 9984 -7207 -6824 -5600 -2670 8884 -6330 -669 0
3272 -3740 -810 -5653 -4922 5268 6055 8345 863 -3783 234 -9254 5601 6439 7062 0
8431 -2204 -5657 -3529 5306 -7237 2168 1055 -9392 3577 7263 2857 -4687 -8348 -171 0
1041 6582 8787 -4887 -1510 -8109 4784 -1269 -9 -4186 -281 6098 -5687 4537 5817 0
-6180 -1992 1743 2007 -9634 -1827 -8071 -7623 8678 -5476 8474 -5143 -6305 -6438 -6242 0
-9112 -4248 -2106 9446 -4512 -100 -7641 -8606 -6216 2621 2716 8724 -7192 7079 -3863 0
8100 -654 8129 -3975 7255 -3281 -5343 -7726 899 5508 5456 3714 -8614 3649 1759 0
-5422 7340 -5074 9454 -9921 -2169 2960 -4758 -1417 -4154 304 1229 4904 8323 2446 0
5708 -5483 4413 1445 1268 -9497 -6985 -3320 4274 -6975 -2949 -6273 -7791 6679 5591 0
-5088 -4698 4640 -2687 -9245 640 -1947 -7717 -8694 1918 -213 3053 8040 -8504 -5889 0
1990 -9155 7701 1422 1265 6319 -6568 -5321 9430 -585 -6525 2177 -3834 4000 8999 0
8794 -4068 8237 -6144 301 4628 729 7361 -6418 -8689 8220 -363 -6896 -9055 5758 0
7911 2543 -3518 9258 8679 297 -9545 -3684 -3469 4999 5000 2002 2161 2677 -2907 0
-4634 -5917 -6605 -9128 9053 4712 1338 -7833 4572 8907 8584 -5493 5327 -303 72 0
7646 5219 7167 7109 5666 -1571 7058 -77 5080 9333 5372 -1426 8429 -1124 8005 0
7100 -8149 5926 -2645 -1627 -9363 4808 -6627 -5654 -7368 243 -9634 -8675 8071 3083 0
-6592 -414 -4418 -1424 228 -4593 9745 1873 1782 -8636 9565 -3896 439 6990 6692 0
1027 8097 1092 6638 -4155 4669 433 5154 -2222 4266 3203 5889 6628 8790 5044 0
-5603 -6735 4446 7986 -5153 -8047 -9381 -7471 -4913 8099 -4199 -9176 5468 -701 -7005 0
9338 7208 -3695 6203 9670 1087 -3588 -5461 -6460 4551 6157 1307 636 -3887 3663 0
-3045 7345 -6250 6218 -4925 1378 1120 2720 -6472 2424 -8097 8328 -8006 -271 7142 0
-3797 -434 -2733 2695 1814 -5155 8359 2568 8564 6770 -8160 718 8290 -6321 -4963 0
3814 9922 1770 -4153 -1151 4297 -2047 5902 -5153 4052 -6676 7306 3844 -2599 505 0
6695 -8705 2921 239 452 -8833 9637 9990 -6739 1365 3855 1701 5245 -2661 -6324 0
-6234 -4185 -2805 -763 4819 1920 2063 3041 6169 8552 -6980 -9604 8565 9271 -2648 0
-9916 1105 -6493 -5503 5768 3739 7308 3267 8756 351 -6569 7545 -6376 224 -1824 0
2806 -6162 -6351 817 990 -8466 1596 -8692 6955 -7275 -4111 -2405 9328 4930 2807 0
6262 3964 -6255 -3726 553 1614 7420 161 -5267 -6175 -6124 9651 -9807 2859 -6561 0
-9778 -1252 8437 3346 -1086 8080 -9965 -5610 9072 -7507 3062 5062 -8972 2946 -9274 0
5219 268 4996 -5393 -2756 3922 1352 7288 5959 -354 1738 -3681 -1057 -3118 -5015 0
4406 -974 -569 -9837 -7679 -2154 983 -3477 -8053 16 6664 -8524 7024 -9820 -2974 0
-5414 1665 -7745 -7974 -4239 7500 -4163 2116 -8086 5300 -8694 -489 8641 9987 9067 0
-9403 6322 6471 -7817 -1052 -3533 8498 3031 5383 -9258 -511 8199 5054 -7295 2130 0
-2276 -4163 6045 -235 -1347 2599 -7974 -6866 1074 -4113 -1561 -8415 8424 -2849 3936 0
-8173 5636 -5897 1597 4948 -7484 714 957 -1186 -4559 5081 9301 2224 -2552 -3321 0
1940 -4784 -9718 1587 -406 8643 1217 27 -2603 7148 3568 8386 367 7166 -7700 0
638 -675 9124 7439 9923 893 -6152 -501 6946 4421 8340 -4690 -7126 -749 -7249 0
6026 3385 -2798 -1120 1498 4163 9615 7593 -3711 3487 3124 1994 -3362 7196 1969 0
6933 2952 -3451 942 -7367 7100 4144 8429 -3258 6265 6060 9812 -870 -3278 6284 0
1777 -9459 4978 4391 8657 2438 -8508 1228 -2649 6802 -4702 6285 -784 -3975 7836 0
1374 9618 5254 -4876 -7303 7221 8567 1369 8149 7160 -360 8335 1170 -5577 -1160 0
-557 5213 6013 5721 -8596 -4740 5002 -2620 5147 -7895 -7744 2538 -2463 -8600 -5311 0
2386 -3370 9093 147 2077 -1582 -9870 -1938 9756 -6862 2659 -4993 1201 -3312 8520 0
-24 -7741 742 9091 -5001 4250 5872 -5340 -4465 -7950 -4356 6656 -8697 1338 -1062 0
-5275 1221 -6102 8202 -9090 7864 -867 -5346 7085 7572 -7075 3009 701 6067 -4366 0
1985 3646 -1188 9314 4801 -4332 -8061 -8421 6117 9969 6026 -6818 1054 -6385 672 0
2427 6573 7831 9544 -7509 -3504 -7110 -1475 8367 -5097 -7662 -9500 871 -3076 6362 0
-9536 5409 -9688 5349 3310 3308 3325 118 9419 5873 7737 6465 -1036 9915 -2522 0
5398 5638 -5279 9845 8105 5468 6583 -8106 -3471 9024 -3891 5357 -4807 -3918 -7873 0
-9863 -1051 3459 -648 8474 -9092 -6887 4512 2452 4437 7122 -5034 -1020 -6720 7902 0
-1141 6569 4810 -1247 1464 5716 -5579 6841 7465 -893 -2024 -6880 -6326 2324 5204 0
4357 1981 -7960 4203 1292 -1144 6496 -7272 -335 -6674 -7834 9869 2333 8368 8487 0
-9059 -1994 8059 -7858 -6975 -4511 5269 -3847 -8782 -3857 -1725 -2299 -882 5412 585 0
-788 4137 -795 -4546 -6828 3744 4869 -8252 -6316 -2858 -7938 -1454 -1733 -2532 -4110 0
3175 3803 -3796 6744 2909 -7897 8278 2268 8771 -512 8455 -9833 6109 4686 -2556 0
-8369 -4249 7248 8706 8405 -6860 -1609 5953 -3618 -5541 -5436 -8313 -1033 9841 -6848 0
1080 -47 6034 2373 4024 -2517 3934 -3694 -7534 -2814 4959 3628 -1947 -8532 -5531 0
-504 -6241 -276 -5642 5726 1774 -4126 578 8928 -3914 4738 -5510 4343 991 7132 0
5075 8020 9479 -7998 -9412 8879 -9302 -2218 -6524 -8944 -9270 -9101 -928 88 -8338 0
6202 -1992 -226 6680 -5424 1683 7708 8670 -1327 8777 -7056 -5037 -1596 3312 3762 0
3801 9054 -1273 2559 -3497 1789 -8982 7591 4189 -3383 -8020 7898 962 -2156 1786 0
-4201 4409 9032 -3066 -2609 6853 -6453 -1139 5256 6096 -6713 5603 -5645 2336 5543 0
5380 -3756 -7779 7825 4221 -7204 8803 4096 -1758 -8946 8094 7987 4127 1363 1459 0
2072 1276 6235 -4785 6806 -7292 -4406 -8304 -8911 -2259 8036 -6857 5562 -5299 -2833 0
-5206 3415 6881 1465 286 -4333 199 6047 -1695 9983 -1606 5197 6791 -2083 4395 0
4963 7401 -3686 -364 960 1324 -4157 9651 4546 -8267 1816 9760 -589 3493 -3261 0
3376 9483 3685 -1547 4867 9707 -7027 3670 -8190 6267 3968 5947 3551 -5263 -3585 0
-8317 -6875 3507 -7992 524 7443 6052 -4318 -8048 389 -6962 -9904 1509 2495 -9251 0
-3510 -8292 5315 8550 -4722 -2851 -8934 1595 7168 -3856 -804 -5813 4046 6576 -1905 0
-8755 -4813 -6840 4636 2739 7869 4352 5600 9932 2879 2376 7694 2895 4612 -400 0
7924 -9856 9371 3400 -6943 -8438 -7260 -1185 -3740 524 370 5821 7053 -4465 4242 0
-6179 29 -9348 -3627 -726 -8246 1517 -4714 6181 -9895 1033 4634 -2030 -8885 828 0
-268 -6191 -5668 -9132 2149 -7312 1517 7261 9649 3531 6615 -8882 6638 1959 -7073 0
7731 1583 -5827 -8555 1066 6013 -7566 -4146 1278 2037 1290 -7831 9503 5780 -1748 0
4772 -8287 -9497 -4758 -6176 -4023 1202 -4066 9483 2940 850 631 5568 6666 6616 0
8685 -2019 -4529 9172 -3388 5876 -8848 -6297 3546 5317 -5321 -6904 1439 3852 -5925 0
-6164 2010 -1814 -1114 1204 3800 -4860 -5392 9746 -5962 7880 -4848 2505 -2286 3333 0
-9291 9467 -3280 -6591 -7737 -5587 -2249 4982 8499 -8283 -4504 8773 5268 -7501 2218 0
-1481 -8370 118 -1412 -3387 2715 3771 1771 -2892 -2460 -9044 7759 222 -2678 -6467 0
-553 1933 8738 438 -6868 3731 6678 -3108 3406 -8437 9478 8003 5164 8103 -8513 0
328 -2823 -8998 4351 8373 -2642 2704 -8974 7578 1987 -4030 -6789 -8713 -6062 4949 0
-3921 3552 6430 -146 6992 4335 4801 -2341 -2589 -7862 300 -8427 -878 7871 4281 0
-916 6368 6447 8256 -8391 -5546 4309 6827 9552 -1696 8822 -3652 7896 1243 1300 0
3809 -6619 -2084 -4425 8145 8517 6743 2225 4061 -5183 2073 -4854 -5785 6295 515 0
2838 -6539 5766 7436 7704 -448 -8392 6834 -9943 8305 -477 -5147 -470 1628 -6665 0
-4512 4505 -2952 -9100 9145 -3896 -5756 7541 7211 -9316 -4281 2252 -3849 -9036 -201 0
3087 7273 5752 7151 4159 9936 -4813 -3849 -3080 -9339 7435 4331 9429 -2152 3090 0
-6862 9764 7952 -9843 1860 7305 1976 8531 -2573 -2007 -7844 2160 440 -2903 8035 0
-8945 9236 3836 -9149 -6361 -7451 7394 6428 9086 6176 25 -207 2916 9499 -2445 0
-5999 3666 6733 -4123 -9899 421 -3545 9925 3009 -4959 216 -5699 8256 -1869 -7942 0
4701 -9513 -5692 7351 -4971 3490 -968 5011 -730 -2063 -9582 -7264 7615 -2600 -7755 0
-380 -4553 -1543 5491 983 8230 -5075 -8653 -9279 -3775 -8209 4534 8076 4990 -9875 0
-6773 3036 -8551 5966 -1950 -5615 4007 8181 5908 -3751 -4008 -7808 -5955 3725 -468 0
-1855 5123 -3290 -4516 1971 6920 9896 -6061 -2199 9578 -2233 -7315 -6114 5740 445 0
-2022 -3602 4922 -7724 -5696 -7906 4065 5887 9692 -4705 -9145 -4311 3748 838 7080 0
2201 4057 -1699 -3365 3978 -7864 -2953 -3475 1581 3188 -512 -9018 6198 6440 -2371 0
-9428 4454 2539 54 8973 -2367 -9676 4458 -6672 -6000 -1248 -2808 4072 -1780 -6228 0
1738 -6911 2074 -9535 8761 2957 -3563 -2712 -1298 3546 -6021 1280 -9759 -4448 -3667 0
7601 1721 8491 5788 -8857 -3485 6778 -9399 7423 5767 6349 -1348 6433 1134 -956 0
8113 -7512 2770 -846 7505 -1108 -1438 9245 -6483 -9201 3296 7386 -6009 -253 1173 0
3725 -9405 -8315 -9248 2981 5365 -2624 7305 -2040 -3117 4422 6020 -2537 -8699 -8360 0
-6731 -1539 -8693 -4188 4412 3423 -8272 -3977 6486 -2920 -4173 -6168 -5594 218 6438 0
7556 6742 2151 -6073 3384 -7193 -4902 2403 -8145 6031 2480 36 7227 -6714 -2040 0
-4834 -6180 -8840 -7572 -6901 7345 -2154 2397 -2635 -2263 4593 -3507 -4651 672 2059 0
-6808 5379 5082 379 -7308 -7629 -868 7103 1770 7139 8179 5228 -1950 -8099 7539 0
9634 -9366 -975 -6903 5297 -7117 359 -2622 4448 -3543 6329 -4072 1556 -6086 1171 0
9990 -1882 -2343 9906 -6675 8839 863 9007 -8101 8490 -819 -529 -3869 4194 -7575 0
7821 7360 3840 -6580 7378 8616 8559 -7581 1482 9153 -95 -4494 1813 -9730 -6019 0
-7667 9356 8535 3162 6267 -3780 6186 -4735 -7717 8305 5072 7630 1634 2217 -8112 0
7868 3235 5602 -5234 -8710 -7947 -525 5904 1454 -5181 1289 -375 4421 7372 -1566 0
-7792 203 8372 -1254 -4674 7256 8407 -6350 7445 -4173 -4568 -8694 -9229 4177 2895 0
1501 6162 9782 4165 5809 4549 -1871 1014 8207 7310 -9360 -3258 2340 -4175 8084 0
-1860 7710 9214 -4190 2453 8312 -6411 6092 4055 -9341 -4707 -8315 -7596 4113 -4801 0
-6121 -9020 -2346 1197 7695 -9112 -5653 6555 -895 7160 3124 6201 -8062 -4851 -7570 0
6006 -8660 2046 -3264 5145 8964 6505 -7641 -4960 -331 3945 7112 -5188 9003 3143 0
-4809 6497 -579 -7519 -9485 9949 -3894 -2841 -5587 5900 -5603 8835 7971 957 -9205 0
7050 7888 7206 9530 3833 -7380 474 7229 9641 -1936 3512 -5236 -6431 -3539 -3719 0
-9296 -3121 7008 -4292 3206 -6812 6737 -795 8159 7211 9881 1701 1615 -3658 -5398 0
5809 -3495 -673 8521 -1922 -4649 -9177 7421 225 -8334 9172 8482 2230 -7012 -351 0
-2799 7714 -7922 -9612 2508 -9522 -6259 1420 -3407 -8620 1266 -4219 8105 -9172 -2043 0
-2347 -1775 9370 6218 -6550 -2086 -1043 5241 725 -3643 1483 -221 -3249 -1713 5039 0
9144 9819 -4674 8862 5876 -202 4136 -2200 7108 9645 2486 1645 2276 6949 -2878 0
-3008 8474 -8729 -8136 -751 5231 383 -8690 -9726 -9530 -7822 3373 -8587 -5323 2303 0
-3295 6088 8258 -3386 2845 5447 -3115 8236 -9911 3827 -1986 4636 -2897 9697 2913 0
-2483 -916 -8056 -7444 -7747 5854 -7183 -7379 2627 7497 -1384 -8253 6653 -7150 -6021 0
-2155 -913 -4592 -958 3608 -6814 8205 3158 -2575 6039 -140 -9493 9867 8898 -867 0
-4074 -6295 7739 -8840 9070 7101 6182 -6321 2941 -8765 22 -7832 1069 8915 5416 0
431 5700 8713 5926 8639 7049 -7066 -422 -6253 -5072 6456 -6414 -230 7403 7279 0
-6799 3063 -1519 4636 -8188 -5778 -4858 -1857 6963 9542 -2236 6979 -1484 7422 -4453 0
-5498 4928 -357 -2958 -9305 1932 -3916 7871 1206 -1134 9780 -5832 2149 -3691 273 0
2703 2921 -5046 -1597 6282 -1963 -3446 -6267 1705 5397 -955 -1085 -2471 2108 -4623 0
1542 -7632 -2585 -4215 -2802 9372 -4828 6674 -1731 6352 -4829 3235 5279 1658 -2578 0
6799 3436 1326 7569 -9215 9593 4004 -6962 -6564 -358 -2768 4337 8717 6747 1119 0
-6605 4902 -7471 3249 -7740 9576 -7441 2511 -8999 1014 2097 5431 -6466 -1239 6497 0
9501 -3741 -5805 -8188 7598 -526 5341 -3791 -214 93 -8497 -2101 -4875 -9011 -6543 0
-8228 -3658 -3861 4089 1426 -5551 6715 2989 4201 -3602 7071 -39 5180 -4455 -691 0
-6550 2740 -3703 -1319 -1037 -46 -8761 -3551 7562 8497 -5808 -7137 857 -6779 -6544 0
4933 2008 -3033 -6328 -3517 -9949 -2672 5140 5406 -4980 -6974 5825 -4500 8718 -9107 0
7497 -3371 7984 6957 8474 -8260 5235 -4894 -4974 2661 -3724 4957 -8799 7832 3745 0
1543 -8944 -42 -1290 -4497 9009 -1693 -5260 2445 7364 -7979 -7052 1882 7160 6523 0
-9825 6412 3756 757 -8018 513 9633 -3153 -7056 7230 1590 -476 9094 -5664 -5979 0
-773 -8324 -485 1304 -9231 -9788 -3988 6636 -1421 615 -2658 -5086 -6678 6392 -9135 0
5877 -4050 -6633 7386 835 -6830 2084 -3415 2284 1499 897 3411 148 1467 3687 0
7028 -1283 2776 -2932 2972 7599 3254 5709 2007 -1706 6687 -7371 4424 594 -857 0
3239 -7903 -6169 -941 -2108 5054 1866 6167 8293 -4422 8339 1713 -3735 -4756 7696 0
-1830 -8749 8651 -7327 1621 9574 9410 5848 -2610 389 3425 8486 -8420 -9070 581 0
6490 2946 -4427 2972 8415 7160 -4343 -2337 8739 -1729 -1020 7598 -7789 5545 -7370 0
8594 9088 -1935 -9964 -2208 5555 4278 7345 -2875 6429 -7809 -8978 -6508 -8268 3603 0
328 -8241 9749 708 5738 5786 2364 4379 8690 -3251 5464 6081 -3309 -4615 9235 0
3687 -4608 -6316 -1758 4583 305 -8009 -910 8166 -2210 -807 -8569 1912 -4401 5030 0
-4137 7820 -568 -2957 -1594 6961 7072 -4201 8705 -4077 -546 -8 -2358 -9614 -7438 0
-8389 6025 -1041 7483 -849 -8975 7005 9661 1896 -2154 -4334 160 8237 -499 6992 0
-513 -3842 5086 4568 6987 -7949 -3107 -5575 -3228 -806 5468 -6929 4290 5003 9867 0
7295 -9819 9776 4925 794 3694 -8419 1902 1708 -9431 8346 1930 6414 -9984 -9736 0
-7622 801 -5907 4630 -7292 8566 -5023 9268 2040 9154 3903 -9229 -9611 -1382 5029 0
-1237 1873 -7819 -7043 8418 727 -1334 -9469 9369 4133 -8327 -8360 -1290 8859 9875 0
1538 5420 -6903 -8241 -6062 -1360 -1269 6494 8217 9095 635 -4244 2089 3274 -6301 0
9717 -1770 5315 3737 -8659 5563 6723 6890 -9956 3033 6012 5425 9216 -4839 -4301 0
3164 -5259 -8645 6756 -2248 -5701 -2079 -447 -2022 9954 9193 -4085 361 5739 -6793 0
-394 7906 -8444 -2262 -636 -7515 6731 2648 245 -9220 -1954 -855 8873 1184 5002 0
-9217 -4803 1737 -4812 413 -6938 -1363 9723 -4292 -8772 -515 -8590 -1004 4612 -9789 0
8951 7235 8395 -2102 -5353 3445 -9965 -3745 -860 -284 -8090 5106 -1414 3572 -5452 0
-7193 -1043 -7019 -5805 5169 5189 -1047 -8784 -7340 1195 6211 6003 3404 -1692 -6261 0
-5466 -2335 -6519 643 -2932 6281 -519 3808 -1355 -3959 -8076 -8029 -8617 468 -9361 0
-8340 9693 1016 -8246 2203 4525 5076 -1944 -1792 -4746 1573 8042 -5723 -4756 -6466 0
3687 -804 5883 1028 -9837 -8628 -988 4577 2164 1011 -9864 1134 6858 6873 -1883 0
-243 -7184 -6535 6006 -1625 226 -8992 -7933 1895 -338 4418 -5013 6343 -6762 -4005 0
-8053 -4690 6224 -7101 -4274 -6142 -8901 5237 2023 -1469 -8564 4870 8134 -7736 9115 0
-403 -6303 2977 9489 -1958 8189 594 4684 9522 8348 -9455 7849 9621 -1823 -1640 0
-938 -4961 5673 5580 4202 6132 3511 -470 8729 4992 -9800 -2919 -1972 -519 -2650 0
-4817 9941 -793 -9346 3243 3911 9469 -9488 7972 972 -66 400 4888 470 2883 0
-281 -5193 5679 1786 -3113 9398 282 5977 -2274 -8563 9315 8881 -6512 -8757 601 0
-2467 6409 8725 4001 -2949 -2049 -2301 -5972 -4144 -3914 -3237 -7471 -3979 5569 3306 0
9386 8111 1552 7876 -6901 6825 -1964 8374 -1749 7587 -8107 4648 -6797 7420 -9235 0
1977 -633 3486 -5780 -5580 -106 -5402 9081 2635 -2457 -7298 8086 7307 9581 8386 0
-2547 -4751 -9482 -5056 9519 -4551 26 -3667 -5582 -3338 1897 -6176 -9380 -8772 7195 0
569 -7463 -5856 5968 6848 -9492 -6273 -9807 -6062 3396 1510 881 -9189 -1772 1916 0
-3054 -945 9391 -6279 8899 7234 -9823 -8748 -5384 -4742 6360 -6969 1316 -846 9366 0
-7974 112 9164 -6881 -6358 285 5924 -7544 -6079 -3618 9005 -5373 8775 -3059 498 0
4891 3441 -3373 -6822 9360 -6941 -2324 1895 -5812 -9631 8487 -4545 7524 8019 -4681 0
8750 3486 7132 -1986 -9393 6414 -282 -7792 8530 -2707 7342 5213 -8651 -5487 -6167 0
1313 -7669 -8352 -9436 6786 -2975 -6964 -7279 -3462 -5833 -5675 170 -1304 4263 -6905 0
-6976 1558 -9989 -5533 4180 -218 -1216 -8030 -6345 -2616 -924 4759 9546 6145 -4468 0
7434 2210 650 -9414 -2553 4987 6792 9390 272 4287 -4008 5154 9391 5075 -4752 0
3018 -7091 -9223 -860 7972 2673 -9646 3884 1655 699 -128 9341 -6909 6213 -971 0
-5179 -5996 -5642 9053 7565 1615 -8548 4380 1913 -2770 6067 6907 8441 -4493 1013 0
5193 3520 6289 -5284 -3309 -6571 9232 -8036 -9575 4584 -8295 -9146 5041 -8300 -8769 0
2975 2045 2042 37 -5212 5262 -702 -1162 6491 4275 -4812 -7135 -4799 -7856 -3876 0
-4065 4080 -814 1375 -3915 7263 9961 -251 350 -2175 1477 -8837 -2722 -612 -704 0
967 55 3851 7643 -7360 3487 7428 -8133 -4379 3874 -5660 2018 4015 -1642 4689 0
348 -338 198 -9322 -5616 -9080 4809 -3914 6450 2976 -9236 -8108 7521 -26 8191 0
6029 -7341 -8584 -688 7547 8026 5985 3351 6687 2041 -3702 2249 -6855 -5651 8887 0
-4747 -3460 5410 7443 -7084 9509 -2473 6339 -721 6029 9230 -8728 -5226 -9309 -2112 0
4682 8317 3849 -8773 2232 -3194 -5097 -4321 -564 -6265 -843 -766 -533 -6936 7296 0
5499 9813 6087 4729 7427 8633 2850 -7935 8274 -7396 4271 6963 6003 1253 -761 0
-8942 -1717 -2306 -2943 2385 1502 -9920 1740 5617 -256 3093 2626 8593 -5046 -5721 0
7008 2296 -7289 9253 2664 -1828 -134 -8293 -9608 -6746 7054 -7886 -9766 -6244 -6909 0
8672 -2487 5401 -7488 -7747 5070 -265 3301 4905 1164 -4701 -6224 698 -3739 -665 0
6793 7668 2669 -8958 3403 9217 4724 -706 -8936 1830 -522 2028 -6288 -9587 -419 0
6585 -1175 7065 6346 4452 6743 -1999 -3731 3144 8915 -7564 9852 -5522 3845 -8009 0
-6476 7879 -3032 9191 -5426 -3478 -8723 2318 -1002 7711 8636 -3113 9316 -631 -5503 0
9395 467 1678 -5524 -2702 896 -2177 9431 912 -9702 -5108 -216 -6319 -1448 -9178 0
-8309 1360 -37 -3787 2533 3360 -6610 -3410 -5522 -1645 -7410 1908 4911 -195 5596 0
-4111 -6260 8401 -5417 2424 5395 -438 4817 -3187 5566 8617 -3722 8659 3397 7744 0
-2911 -7202 -8679 -8370 -5080 3245 -5502 -1232 -9593 -1281 -4163 -8671 -7440 2897 -519 0
-2750 6879 -6196 444 6472 9366 5491 -6921 3752 -2060 -3152 6105 4199 9372 -7560 0
4750 9488 9446 -6685 -6155 -9021 7214 -1750 3451 7148 -4487 4828 7888 460 4597 0
9581 -3736 1566 8008 2109 534 -5574 -964 -9981 2177 -4458 -5700 -8194 778 -6627 0
-3087 -1501 -4114 -6158 -3756 -1159 7563 5657 -3249 9245 2678 -2607 -483 8109 4607 0
9590 515 -1671 -6959 -2313 5876 3031 869 6204 -9915 4691 5355 7424 -2610 -7140 0
-86 -5963 3462 5423 9204 565 6467 2899 707 3907 -3882 -9179 -7567 -5247 6127 0
8402 1042 4881 2074 8622 -1772 4021 3489 -3782 -4692 -5769 4437 4832 935 -9916 0
-7700 8250 7412 -8513 7684 233 3671 9701 1619 -9558 7179 -5677 -6934 5647 2444 0
4513 -7224 -4642 2887 2505 -1865 4765 3371 6929 5372 -4162 -9262 -4388 -4541 921 0
2701 7517 3554 -6289 3942 3739 5438 346 -3633 9120 -4865 -4694 1410 7096 2799 0
-7440 5068 3108 9004 9138 374 8442 -8399 9745 -4632 -1939 -8020 -6485 -1655 -7274 0
-6696 8683 4680 -8437 -7842 -7449 4949 -7125 -5812 6790 -2738 -29 -1140 -1835 7457 0
5542 -7941 9597 -6441 6560 -700 -3186 1141 -3065 -1689 -3971 -128 -3803 -2615 -902 0
6187 2540 -9674 4069 -2824 9130 -8031 -2780 -4928 -8341 1247 -1326 -5875 -9478 3723 0
-2134 439 -2920 8718 6276 2108 -1910 -8715 5982 7260 -5560 2331 -9541 -4845 1502 0
512 8067 -4979 5015 1037 2964 -8543 -7146 -4037 -5516 -7847 8410 -3395 6948 9397 0
3369 1874 7393 4948 7791 -9206 6506 -5015 5714 -9965 4341 8518 -8982 -8945 2168 0
411 -1313 -4126 7291 2155 1192 9586 5464 -1076 9849 3534 6284 8366 -2797 -4213 0
1529 4471 -895 9453 -9261 -341 4837 4396 -9033 -7452 -1566 9658 -648 -5853 8625 0
-3248 3048 5373 -3696 -3062 -3944 2985 809 -8837 -2175 -719 767 -6277 -7045 -5759 0
-4125 5784 8978 -2058 -9490 5040 611 -3054 4574 3601 -5234 8910 4623 -3297 2863 0
-531 -6300 -2501 8355 -9911 1382 9966 -7037 7292 9804 -8272 -7059 -741 -2021 -1093 0
1870 -7515 1245 -1136 3009 -5808 -304 4885 5060 4179 -2417 3710 -671 4643 -7508 0
9691 3369 7154 -5399 4570 9519 -7119 7657 -5710 -9749 -7884 -7368 -2363 -7965 9362 0
-8822 1184 -7785 7214 -3186 8904 -8024 -3013 -2081 -6827 -6479 3904 -9648 -5498 8961 0
-8447 4039 6048 -4774 6126 1981 4978 3273 -4413 4288 5955 -3178 -8251 5724 9115 0
1850 -3774 -96 -9220 9109 -9392 5503 5128 4787 -9173 -4168 1244 2980 -7632 9774 0
5719 4987 2024 3332 7832 2150 -9066 -3109 5330 3116 1207 4643 2678 1599 -7931 0
3409 4051 6533 8989 -9369 7068 5635 7325 -6641 3671 -4442 3472 7936 -9461 1851 0
-703 2860 3815 6300 -3085 4897 8247 3810 1910 5386 9501 -7387 4275 1962 3902 0
-1063 -5424 3422 -7207 -9150 -2963 -9095 -934 5416 -5124 3370 -9279 -5915 -7126 -6454 0
1901 -2576 -6511 2579 -6455 -9131 -6568 3548 2929 -5396 1824 -3381 2959 1322 9441 0
-3378 -5645 5491 8093 2756 -1402 -8418 -931 2205 1266 -7375 3968 6695 7245 9565 0
9216 -3168 4591 -3153 1513 -4219 8968 9271 9702 -3038 2263 5700 -4900 -6763 -4885 0
-4669 2440 2916 -8106 -2483 -6757 -2239 8102 -2934 2812 -7738 2869 -4886 5644 7272 0
-8893 -4451 5734 -9791 2347 4072 -2345 -6268 -9929 1268 -9871 -7995 -8934 2113 -733 0
-9163 5231 2075 3915 5077 2423 9748 -4760 -7540 -5979 7878 -6286 948 -1659 -4697 0
6130 -9385 5367 2114 -7142 -3064 959 -9838 2757 7287 -6833 -1183 -341 -2400 8033 0
659 -2132 -3331 7237 -1901 -9680 8742 -4799 4787 2720 -4309 7418 3619 -1632 1085 0
-5188 -2868 8633 2467 -6741 -9749 -1098 1037 -494 3882 -4793 -8639 3663 -7356 -4000 0
5426 -6834 -391 -8794 6903 -3737 -8438 9596 -9665 9994 -2321 -281 9699 -2925 -1140 0
5024 -7372 -9807 -6975 -8849 5450 2311 9359 5566 7561 -8476 4966 -1615 1720 9591 0
8024 -9067 2183 -3241 -5493 5738 847 9318 -1994 9687 5197 3676 5234 4629 583 0
-3794 6142 2418 9832 -7708 -6155 -3272 6006 6582 -3844 1012 2650 -4371 2281 4005 0
-486 9903 9857 9519 -536 -1296 5822 9386 9328 -7095 -640 -8485 3807 -4590 9167 0
-1959 2329 -5282 8536 9596 -3522 -9873 8309 1380 8668 5710 -5127 3604 -518 7413 0
-7172 9205 -664 -4684 -9450 -8088 -3888 2982 946 -168 -5910 9841 8906 1963 7545 0
-6413 3407 -8387 -2961 8463 -7111 -6959 -80 -9723 6300 -7627 -5090 -2646 -2894 5266 0
8607 -1 -4238 8116 5638 9058 5234 -6787 -3629 9307 3375 -3401 3226 -1182 -8555 0
1457 -2952 -8291 4069 -8315 5857 2310 -49 2720 7854 8411 -6813 -8568 6950 -2439 0
5781 3127 9778 8408 321 -9546 -9718 284 -7928 -4203 -6468 -3381 -5465 6955 3375 0
6404 -8251 6855 2020 9152 6757 9182 2055 5928 -5576 2139 -9087 9628 -4188 749 0
-6089 2316 9838 6885 4631 -6252 -6693 -3835 6433 -4314 5179 2213 7173 -9926 -395 0
-9745 1324 -4294 8145 8999 2226 -3100 2899 8439 -1571 -2650 6306 2598 -1925 -7720 0
9497 4199 -730 3189 1989 -8173 -9653 644 3887 8497 4417 1040 -9342 -8769 -8075 0
-3107 -3065 588 -27 6666 -8908 9463 38 2912 7205 -9361 3970 262 4078 8962 0
-7556 5573 -1699 -9093 -6000 9498 5120 8508 -7685 -7438 -6369 8163 3934 7734 4389 0
7081 8731 8710 -8142 -4854 -4546 -7551 6108 -6730 -9055 7271 -5887 -6993 -2495 -6921 0
-2548 -9669 3610 7012 -124 -3086 5067 -445 9411 -3435 6309 -567 6821 -5593 1647 0
-1113 -5104 984 3858 6868 8698 4398 3650 -4345 9562 5446 2220 7559 7980 -4740 0
7010 1287 -8369 3225 -3579 -1137 1835 3895 9066 2485 8222 -9500 -2770 5227 6846 0
2129 -6063 -867 -9997 6844 -2134 -4525 54 2103 -2487 306 7320 3805 4092 4652 0
9237 4773 -8315 381 8072 2830 -1514 1535 -3732 -4584 4541 -6558 8902 5008 -5330 0
-3245 9007 534 9267 845 2245 737 4858 4456 -9762 3867 -8961 5995 -7355 8407 0
5342 -1164 -4889 8524 -8433 -6027 -8605 3648 7741 875 -8021 6752 -3571 6092 -4230 0
2857 -187 -8347 5505 5134 -7347 7051 3699 2896 9155 -846 8786 5291 2510 -9620 0
-4887 -4785 487 6637 1940 2668 -2227 625 1734 -5753 -1556 9909 7634 -6594 425 0
7724 855 7153 1824 -1373 7999 -1221 2404 -1557 -3016 7034 -7687 2268 1028 54 0
1530 9097 8306 -3203 -7098 8041 6455 8287 -1028 5334 8319 9932 -3158 -1854 -8862 0
-7941 3379 7567 -7415 -2010 -9777 6808 324 4403 6032 -9850 -4595 -2115 -2851 7040 0
6414 306 9613 531 7035 -2079 -1417 -2737 -3999 -601 4516 -5613 2570 4612 -3024 0
1172 -7304 805 5134 -7613 -3880 5440 9191 -6702 7285 -2232 -5857 7204 7946 9365 0
7669 -8705 8329 7021 3699 -687 -2580 -810 7488 6138 9238 -2240 -9760 -2557 4875 0
-3079 -8418 6859 5675 2206 -9690 -6357 -4519 1824 8337 6563 -216 4472 -2552 -4773 0
-3606 -4078 -4865 2089 -6060 -6590 -8206 1178 -8959 581 5388 -8685 -7997 -6906 -6731 0
9479 -2573 -5687 -8835 6665 -7549 -4449 5766 -7666 -4120 -1708 -5053 246 371 -9108 0
7863 -9141 7735 2641 9467 71 9913 3659 -5854 -1679 7699 -7157 7791 -7406 -3833 0
-4688 -914 2846 470 -1859 -7253 -7109 -3626 6283 -2904 6194 8666 -3154 -8558 -6297 0
1343 3690 -2683 -9113 8158 -8415 -2661 9212 -1740 8639 7532 4101 6089 3570 -1945 0
-4286 -111 -8133 -3210 -3331 -9133 -3285 5140 -6765 5806 -6898 7039 696 7673 -8273 0
8748 -7908 1344 -4244 -7402 3628 4907 3036 -3401 6130 879 -7458 2583 -8658 3688 0
1789 4522 9368 -7081 8607 2899 -2334 3603 -9135 2052 9232 -8776 -8031 -1814 9580 0
2254 9718 3454 -2572 9465 -201 3437 -7742 6755 9226 -1016 6758 -8914 7824 5421 0
6271 2126 -6656 -3423 2545 -9137 -2077 6097 -5448 8648 8662 481 2149 -5220 5906 0
-863 9531 -3952 -8917 5676 -6476 -731 -8709 191 204 5971 2764 -3091 -7621 -1135 0
-4879 348 -9143 8426 4992 -8878 -2566 -6524 5049 -558 -6477 -2506 8126 -9218 -645 0
3110 -6736 -2611 30 -5513 2460 -8710 -6665 1067 3411 9421 2072 8894 -8821 2153 0
3008 -6702 -218 -7655 4032 -9553 841 1483 -9567 4191 8016 4867 5497 -5028 -6274 0
-7958 -3027 2563 -8329 4301 -1402 122 -6772 -702 5208 -7540 2291 804 -6517 8493 0
-7429 1766 6511 -2662 7804 -7330 1632 399 -8069 -9720 -7228 9727 -2418 8950 -7053 0
9266 5222 -4275 -1552 2415 8291 -9904 336 8209 6554 -6579 4971 9338 -9931 -2563 0
3432 8855 4608 7619 329 -8843 -6029 4799 -6130 8983 386 -3246 -260 6761 9399 0
9951 1414 8399 -5413 -6840 -8258 7224 9365 3976 4365 4369 -7270 -1499 -4890 -2158 0
-9829 6960 5824 6227 458 9313 3549 -584 -8334 -3570 -9161 -3815 -5939 -4593 7861 0
1659 -4585 -3870 131 1833 -2517 -3510 3260 -8751 -443 9586 4398 5386 3982 -8906 0
-1479 -8768 6763 -7805 1594 -3839 5184 7124 1425 4154 -5452 8932 -4031 3620 -3443 0
7257 -7553 639 313 -2608 -2270 -518 4296 9644 -8328 -3848 -5165 -50 2017 -3596 0
-1409 -477 -8449 2198 -7787 -4182 1755 4203 -165 5571 -4129 7853 3952 171 8971 0
-4565 -3926 5172 7267 3035 3345 5502 1517 7961 -1807 828 5963 3623 7656 5508 0
-533 907 1143 -7289 -4102 6081 -2963 4189 1071 -1932 -2100 -9322 4142 -7107 5177 0
-9 8613 3211 2852 -3697 8854 9146 -176 2619 -2334 4035 -5032 1413 1063 1771 0
1943 1151 5908 6371 1450 -5169 2177 6767 5492 -3131 -4687 4421 965 1637 -512 0
2104 -3580 -9736 -9191 9108 -4749 3283 -1140 -5765 -8762 7394 -5627 -5029 -8367 -2541 0
5810 -4247 3879 -9473 1448 608 -4091 1470 -5277 -1929 -3552 5496 -997 6028 -8925 0
5229 6229 5936 -360 -9968 1998 -8007 3784 8792 7838 -8073 9290 -2145 2517 -3123 0
4191 -7496 9137 8955 6572 -1809 -580 -193 -2639 5216 -5003 2235 -4840 -5688 -4770 0
-3455 9722 -3536 -6189 1552 7758 -5002 -1501 586 -7688 -4480 2831 3236 -3573 1535 0
8394 2333 -4724 -1538 5083 -4883 -4254 -5688 6665 -9627 -170 4195 -7383 -4046 -1271 0
-3334 5485 334 -6366 -338 6818 -9789 -6967 -7227 2019 2986 -6345 3738 -5145 -4897 0
701 -7236 -5591 1660 6836 9422 -7461 -8793 6145 4940 8102 -1111 9169 374 -2051 0
795 -7485 -246 -419 4006 6558 9127 -4003 -454 6536 -7433 295 -8936 7044 -1374 0
-8197 -7972 7604 -7851 4211 6731 -1291 3771 -6415 9351 -8697 4818 6951 387 -2282 0
-4517 -2476 4978 514 8578 3855 8419 173 -4350 -2871 -5799 -478 -3368 -380 -9272 0
3091 948 9287 2419 -7106 8299 9308 -3457 370 936 3172 3567 4282 -6730 2767 0
5073 -1339 -4289 -2419 2171 -5051 -9209 7545 -2426 -3469 9405 8038 -2462 9090 -1752 0
-1185 3397 3042 8088 221 4245 5841 2039 -5658 -5317 -7541 5816 -6844 1433 -3536 0
-9209 5269 753 -1366 -7761 -1426 -9546 3063 2658 7741 5495 -3224 -4748 8650 -9877 0
7129 -2548 1934 5808 8148 -4774 9938 1791 -8752 7081 -4491 837 -4786 -509 -4809 0
-4232 3909 4593 7813 -921 250 1519 7911 2604 16 -9929 3911 -4734 7888 -6830 0
-5360 4603 -5798 -9159 -4782 6730 5229 -9125 -8981 7651 3743 6016 -7119 5535 9206 0
-4726 155 7235 -6598 -6451 1382 84 1407 -7556 3936 -1069 122 -6783 8366 -5719 0
-3735 -555 -4655 8754 -5884 5259 -6038 -7214 2133 -1609 -1848 8539 -5162 1424 -6753 0
3658 9906 -8045 6364 -1792 -8354 -9363 2545 8607 -7059 -9796 -9559 -2234 -3726 9878 0
-9314 8592 -6096 -9704 4357 5708 -7828 2719 -9866 -4322 -7406 7361 6715 -8787 2678 0
-9670 -3447 -6160 -1333 -6534 9881 -6446 -9226 5848 5510 -8358 4530 2380 -8894 2449 0
3974 9718 1904 -7483 6362 -2826 7411 5673 967 1395 8783 -8747 3783 8416 5613 0
4060 -406 6549 -819 2738 3784 -4790 886 7660 3595 -3602 -6686 -7433 6087 6189 0
7380 6266 8006 5655 8266 4684 -4116 -7065 6703 -6816 -5279 7927 -2198 4700 -6371 0
-3229 -9149 4943 1447 3090 -5029 -189 -316 7221 -7457 701 3918 -300 7871 9868 0
-7972 -9678 344 -9557 -4225 -8446 -5581 -2416 18 2402 597 4405 9387 -1989 7408 0
-4885 -8991 -7020 3209 252 122 7962 4914 9813 -9902 -9829 9755 -647 -7345 5200 0
9109 -1937 -2133 4671 7967 -5031 -5153 915 -1199 -3557 6001 -3778 -3049 -3446 -973 0
-1960 4159 7408 -8687 -9850 -8923 -4883 -3776 9976 -6779 -7633 -3123 -2021 -2977 428 0
679 7305 9101 -4940 -1663 8297 -247 -2811 8656 -5296 -7214 5007 -5905 4243 -8323 0
-3275 9457 5875 6522 -734 3717 -3423 -1147 3909 -1333 -3128 6603 9344 -2172 -3904 0
3213 6304 9218 -2888 9396 -5003 -247 2317 -43 -9437 2897 -6396 -9110 5031 2841 0
922 5750 -5248 9092 3338 9541 -134 7188 -9858 5147 3283 3660 2532 4679 8979 0
6940 8516 9820 -656 6706 6689 -5449 -5708 -2462 -3417 -6591 9648 -902 -4109 7573 0
2660 -9479 4110 -2627 6018 -1257 9542 8125 -9801 6805 -2362 9100 6881 -8073 9033 0
242 -7103 9387 4782 5348 7728 -9193 1774 -7101 -9370 -5946 2240 8281 3378 728 0
-3830 1073 6345 -1443 1741 1179 -3577 -7854 -6828 222 -5205 -5680 -8719 9207 -2633 0
3152 9402 -3572 1921 6422 -2959 1870 5497 1397 9147 6997 9607 -2259 4005 5288 0
1081 5285 8905 279 1842 -9225 1392 8099 -218 7735 -2478 3542 620 8809 -4138 0
-9699 -9509 1536 -5515 -1691 -6157 -6664 -7786 2202 -2462 -1222 -3196 -357 343 -1388 0
-6710 -5503 3977 1330 -5619 8698 -317 -1153 -213 6194 5020 5570 -2809 -2333 -5336 0
-5152 -8789 3874 -8851 -6378 6256 -9062 -4901 5746 -2595 2703 -2784 -2731 7725 1362 0
-1089 2469 -5840 -7456 -208 6347 2347 2960 6982 -5189 1011 9105 1781 -2463 4900 0
4179 5339 -7003 7335 -4930 2832 5740 -3149 9499 -9226 6753 6162 -4584 3497 4390 0
-5310 -1339 6580 4422 2614 -6341 -396 -3687 5483 -6654 8867 -316 -6940 -8182 -6012 0
-870 -3813 -1724 1590 -415 -1815 -2764 1053 8534 -5772 7489 8631 9579 8356 -6505 0
-1134 -3895 1944 4260 -5159 -1470 -3230 9013 7492 269 9260 -3281 -8298 -365 4235 0
4788 -2108 -2586 3244 -3592 5934 -4886 -7847 -2430 -5869 -3509 3565 -9915 -3699 -9380 0
2486 5395 3554 1220 -9756 6870 -1393 689 -7035 -9349 6284 -1579 1522 -1608 9863 0
-9328 446 -1613 8321 7865 5104 5422 -2787 4815 301 -3031 6941 3648 -7874 9197 0
9247 -2208 341 -9174 -9069 2399 7090 4269 -2910 -3765 829 -2542 -6839 -4772 3200 0
-851 -6713 -6547 5274 -8044 3619 -7557 4657 -1820 -1666 -9010 -7784 8473 8992 -6417 0
-8733 6932 8777 -3600 -52 9695 567 8800 9456 -3766 -9940 -5921 -6991 5075 6492 0
9459 -1351 -6416 2445 -2291 -2114 -370 5646 7119 -9944 -2927 5281 846 -4606 -2305 0
-4970 -1621 6795 6903 2753 6072 -7301 8980 923 4654 5405 -7239 4814 -9326 5269 0
452 -3778 6180 8348 -8630 -4640 -2041 5864 -3619 5259 -9093 -5288 -6843 5182 5430 0
9718 8696 -2476 -2151 -5034 -4286 6113 -8826 -6933 1152 -2509 9038 -7945 5830 2988 0
1550 64 -2544 -2912 -4837 8392 9544 3309 -4979 -3223 144 7600 2086 -7233 3495 0
6185 -4595 -1660 5838 -1520 2452 -4401 862 -1600 -8490 6701 2544 -42 -7911 9313 0
3695 -3478 648 -3248 -8377 8672 6812 -9537 -1588 -1356 -1783 -7245 -9021 9445 483 0
1451 -9735 595 2833 5464 8561 246 4111 9234 3970 -2083 -1945 4660 9925 -590 0
-286 2509 -6329 -6672 8305 5980 1748 -1257 -9340 -7203 2343 6446 8621 -7214 -1322 0
-9300 -2356 6754 -4016 -5604 -7603 -1083 6246 1058 -8029 6997 9722 -5253 1663 8927 0
-915 2609 1595 7891 4047 -9093 -1534 -286 4315 6210 -9005 967 -660 4754 -5131 0
-84 5411 -6955 6476 -1542 -1854 -8712 -9983 2174 729 -4003 -4471 1551 3535 2714 0
9305 9680 6275 -2461 -6014 -1239 -1221 5118 -7520 -8232 3256 -9942 -2483 4275 7793 0
-8351 -1200 5577 -292 5267 6015 -8056 6752 -3210 625 -5167 -9629 -9636 1201 8007 0
-5467 -8190 -4108 -7506 -5854 9055 8382 2300 -5249 -8742 -1553 3553 568 -6646 -6186 0
4074 -7388 9994 2778 -3807 -327 -1704 -3541 490 9723 3373 -8633 5546 7949 -2981 0
-511 435 -9180 6492 -3717 -184 -4462 6280 -1859 6429 2459 -3184 -2665 7131 -4871 0
3617 7290 7638 -4064 -7902 6486 -4490 1388 -9989 1641 9774 3474 6703 1747 7715 0
7620 -7848 1873 6349 4665 8463 -977 115 3012 -8099 7513 -3984 2154 6375 -6416 0
6723 -2379 -2059 2452 -2295 -9970 -7790 4446 7394 -1676 2136 8361 -3733 8942 -2336 0
5337 -3681 -3225 5268 3432 -167 5941 -3563 -4992 3057 7952 8743 -1374 8365 3910 0
-7201 -7142 6532 -4898 -268 -2927 -9654 -5671 -9710 3826 1120 9962 -9586 876 9987 0
8777 5189 -5068 -1209 1194 3925 -5579 -9320 -1455 -5916 -2296 -4887 3546 8373 5495 0
-8419 -7644 -5551 2534 4775 -9557 -9334 -8670 6212 -326 -953 176 -7323 1444 1773 0
-4001 -292 -9243 -6436 -8681 7200 -4498 -8139 4748 -9127 -4100 -4319 9332 5055 2618 0
7215 -9675 7165 9148 -8564 -710 -5039 442 5315 704 -6359 9792 2288 -9605 -2944 0
-2788 8902 4652 2151 8808 2690 -825 -6585 -471 4218 9306 5782 -7723 -125 1684 0
8024 9090 -3669 9886 9499 -2253 664 -6880 -6798 -5136 -1811 7685 848 632 8282 0
-6711 -1661 -7377 -8751 618 3915 -7287 2978 -7075 6829 -3558 1033 -5921 -592 9210 0
-4310 3475 -9105 -4889 2018 -7777 4180 4963 -826 -5058 9843 -3997 -5207 8828 -7289 0
-9031 -4712 -932 5112 -8312 7632 3780 -9666 7309 7475 -9414 8178 4870 6134 5942 0
9065 5674 -964 5785 -3326 -8075 -7057 -1604 -4626 1595 -7710 -7018 -7964 4795 4828 0
3838 4088 6732 2344 5635 2875 -7000 -5101 3733 2539 -4120 1602 -348 -7800 -8539 0
-6177 -9640 -3347 1098 5204 718 -4790 -6051 -7989 8455 3782 9523 -4039 9682 4751 0
-1473 -7862 5538 -9872 -3061 9138 -9641 1504 -9682 6272 348 -1830 4670 8375 7150 0
-6468 -6113 983 3244 3737 -746 -1451 5025 -5365 5040 8737 -5876 -3383 -551 -2691 0
2048 8550 -7336 -9910 997 8480 2972 -2323 3203 9560 -863 -6786 -4744 -1909 6497 0
-8844 6454 1538 -9999 -4868 6289 2749 -2470 5795 1560 -8485 3715 858 -8950 -9172 0
9873 8864 6621 -4755 -6297 6265 -4414 7058 -7375 -5225 -5581 -1317 8269 -2898 -84 0
-2059 -6853 -342 -3552 1524 -248 -3142 -4351 -1273 -2273 -7894 7524 -2205 -122 -2592 0
6409 8076 -8014 7415 -6559 -4617 -4812 9357 -2705 -9662 -535 6365 -5226 1126 7263 0
-3842 8502 -3486 2400 -3788 274 -4138 9325 4226 -4109 4807 -7944 -553 -3251 -3644 0
-5001 -3628 -6978 -2237 -4460 -5731 -5189 7331 9357 -2927 -4826 3194 5662 8663 6973 0
-9789 9087 2210 7414 9340 8205 4954 -8086 3043 1569 -8565 -9617 1797 7658 -7787 0
7739 7872 2814 362 -3884 -2423 -7470 -8586 1872 1982 3958 3715 9688 -1623 7120 0
7455 -8297 3943 -7920 -1180 8947 -2006 9403 6157 -2836 9032 7429 4911 -2823 -6557 0
-27 871 940 4688 -8192 -7117 -5245 -2287 -7999 -2088 8287 -5231 -1919 -2165 -681 0
5976 -7664 -3108 -1644 3188 -2100 -934 9411 -164 470 -5438 -3857 2668 6978 -2903 0
7116 2234 -6812 -4610 1377 548 3813 -7295 3762 9542 -1779 3228 5349 -8260 -1989 0
945 -586 -386 -3785 -799 8830 5494 -4060 -3641 -6798 8080 -2771 8790 8305 -4859 0
-4244 7797 -1278 4355 -8774 -5264 7735 -3484 -2202 -259 1213 5257 6179 -5761 2304 0
-9043 2907 3701 9912 1129 -1030 -4290 -5221 803 3398 -2197 -1310 -5072 -2934 -5112 0
-3869 -8027 -9056 2502 -6328 -3667 8584 -3961 1045 -4055 8679 -295 -789 -7635 -1219 0
-1397 9763 2955 -2556 5593 1574 3727 371 -2060 5729 8694 -7075 1290 3982 6610 0
-4335 -4800 1910 9252 9056 550 -7631 -4305 -5850 9144 -1447 8921 1364 -8954 -7024 0
-9650 -2183 -2989 -4697 1882 -7983 -7721 3069 -4076 7985 2029 -5047 448 -2154 -8095 0
9671 -6321 -1886 -3526 -769 -7830 1862 -2102 4379 1730 -3289 -873 141 -3376 -2722 0
1244 4770 -2963 -5194 -1308 -9881 -9217 -2413 -8380 -5778 -9158 -6537 3279 2513 2341 0
-645 1539 -9276 1049 -6374 -2072 -5620 5500 -2638 -1930 -6754 -1071 -9482 -8083 -8376 0
2674 -784 184 4416 2282 -6006 9098 -5835 1458 8031 -4846 2498 3752 -8675 5281 0
695 -5129 -596 1706 -7934 4705 -591 -9164 -9772 2860 -764 7821 -1985 -5587 -8622 0
1879 -4570 2510 -5751 5943 -6557 3816 -9134 -990 -926 -4056 7433 -3051 9787 970 0
5639 4587 9404 4554 -8533 -279 94 2981 -6517 7804 7165 8914 6396 7940 -1153 0
9154 8962 1511 -208 4518 2934 -6166 -7013 126 -1177 -5991 3693 4617 5147 -672 0
-5506 -4056 -7522 1056 -7779 9191 -4689 -4624 9668 8533 -1586 3406 -9638 -3256 6143 0
-2414 -5519 -5222 5493 -7824 -9626 -948 -2376 -4267 2274 -3357 1876 -2087 -4272 3831 0
-7205 2695 -788 5956 3243 1426 2331 448 1718 -7421 6721 -6335 6168 -3085 -3716 0
5811 -1150 8911 775 3818 3688 -8714 2797 6051 7082 3436 -6386 -3934 1921 -9060 0
4467 9605 8759 1522 -3429 7911 -2053 6150 -6501 -5988 -3788 -4232 -2761 140 -3596 0
9809 8407 -9835 -9110 9797 8296 9038 3868 -3980 -4231 -4254 13 -5487 -7493 6131 0
-1737 -6057 -7576 -9842 2797 -7156 -6707 -9908 -1671 2399 -698 -4176 -9548 -8344 2123 0
-5095 8520 5618 498 -3911 -8184 2889 4027 1870 3988 -3204 4123 -6838 -3852 7466 0
383 -4967 -2055 -9702 1456 2701 -4353 -7223 9116 6058 -2816 1786 7087 5947 3151 0
-7048 4106 -7553 1952 2953 5257 2113 4791 -9219 4161 4346 67 -5992 1588 8317 0
-8471 -6664 -6126 6481 -6096 1141 6300 -6607 3689 9433 -8732 -527 4405 2901 3351 0
9041 -7148 -974 6202 -7566 9790 822 -2691 7734 -8783 2751 7516 2403 1015 5580 0
-8931 7041 8231 2945 -7799 -426 -2833 -9091 -4531 -3588 3904 2714 799 -9485 3722 0
-235 -9099 -3938 -2120 418 3183 -6503 -9093 7831 1067 1428 4650 -9500 9460 672 0
7916 -2767 -3527 5864 612 -9453 -6485 7193 9467 6498 9303 7808 3875 -121 -4932 0
9226 982 -7435 739 -381 -8728 -8692 -7547 4528 -8446 8729 9965 9586 5577 -119 0
-6629 -6999 -7204 -2034 8109 -2067 -2199 -6311 2299 -9103 3306 -5001 -309 -7315 -5079 0
-1526 -8950 -8165 -3689 -6458 -6013 8556 2519 -5189 8531 -5949 489 -1570 7871 -387 0
7491 975 -6140 -2230 -905 3135 -5270 9710 -4846 -9534 2770 -6053 -8986 663 288 0
-8961 9566 -600 1813 7762 -5642 4474 2809 -2439 -2236 -53 4830 -7260 -1221 6673 0
3548 -7207 3958 6881 2042 -6969 8610 5310 5233 -1710 -2155 2959 -5833 -1080 -1301 0
-2276 8056 -133 -3105 -816 3704 8319 -283 -8007 5289 -4512 -6695 -3525 1381 -7827 0
2178 5481 2069 -2963 5570 -8941 9079 -5929 -6774 -1951 8494 5733 -249 2672 -6875 0
-6783 -8946 7577 -5559 -1409 -6024 7934 3469 -6245 8611 -3665 -6628 -895 -470 -2042 0
-1427 9646 -5971 -1109 2304 6743 -9918 3402 -9008 -3177 -2317 8140 -9839 4035 -4893 0
150 -7283 -5174 -4622 9602 2761 -4207 6801 -3478 -6432 -8730 5253 -9647 2188 -8607 0
-8997 5339 -939 5969 -7206 -2237 -3811 4787 -9836 -6148 6193 -6645 -7262 -9162 7622 0
-5998 -1172 -6124 -3922 6987 619 -6630 2726 3853 2841 -6046 8003 4224 -7295 -6081 0
7229 4803 3442 152 1415 -8393 9655 -5903 -2252 9119 -161 6601 -2595 7086 4171 0
80 -8693 -9440 461 -8328 7529 -4048 9455 -5349 -1484 4320 4706 -7832 8797 -4966 0
-7778 -7871 -8467 -9824 6507 -7196 -8559 5224 6396 -2712 -523 4197 5051 -6416 -5160 0
4614 2294 9914 5672 1395 -8490 9024 -5964 -4268 5560 202 -7337 8491 -4060 -4772 0
-3821 -8873 -7738 7191 5915 -3531 8083 -3582 -6273 3506 9482 2604 6631 -7236 2210 0
3139 -5018 -6861 -2043 1667 -1564 7596 -1919 4785 -5800 4627 6215 2375 -6993 8143 0
7278 -1748 8635 -8322 -9946 -6116 8224 -1341 9379 -903 -4340 -5729 7505 7412 1762 0
240 9985 5849 -3463 -4067 361 -1483 -286 9655 4446 -9917 -159 5663 -2288 4719 0
-712 282 6566 4164 -2375 8875 2628 3184 2569 -5128 4120 -7135 -995 -9184 6662 0
1929 858 -7490 2130 2472 2781 6540 4865 -6271 -7233 -5958 3492 1901 -1948 -4952 0
1803 3976 5354 -9291 5773 8533 6895 -2901 -2837 -3121 5754 7297 5336 6666 -9206 0
5565 -8410 5143 -57 8748 -1715 9461 -5616 4544 5577 -1048 773 7491 5863 -5594 0
6067 3735 2594 -502 -5511 6146 9628 -3480 -5201 -4597 -28 -285 9054 -5382 6418 0
8828 -7080 1968 -5622 -9166 8671 -3302 2194 5614 9508 1170 -9069 4521 1780 605 0
-891 9230 5273 5951 -932 -7094 -8150 9295 -6626 6949 -3203 7755 4859 -7362 9385 0
-1392 6158 -4137 335 -6439 -256 8429 -3181 5345 -4504 3547 -193 9421 8815 5436 0
-4492 -5344 -3270 4327 2242 -4175 2793 7624 -5260 -128 -3716 -7283 8069 -9018 -2830 0
6935 5474 2646 -1947 -5860 6656 -5905 3107 1574 9761 -7359 -2218 -7632 -8971 2326 0
9187 -5597 -2372 -3056 -8524 -6750 -6200 -4340 -9851 -2347 5022 670 -6969 4822 7622 0
-6829 -7086 -5822 -5477 -8511 -3076 -550 -5179 6418 -8400 -3822 -9083 4471 8195 -1962 0
6389 7416 -6991 -7345 3580 -6308 -2443 4748 8017 -8227 213 7060 -6667 3687 -9245 0
5269 3026 6355 214 -3522 -7798 930 8129 9440 -1687 4074 -7537 613 1536 5495 0
-3775 -2238 9116 -312 -2367 5529 4064 9041 -8806 -8650 1423 -7830 -6880 3966 -6241 0
-2964 8879 -2715 -2852 -4873 -6109 -5214 6988 -9193 8392 -4000 6156 432 7976 -8342 0
-8384 3168 -178 735 8928 580 9555 6320 -3528 -5130 -9399 -4632 -7523 2534 -2458 0
-3168 -3260 5700 -7275 3100 8436 6904 8990 -2864 -1453 2394 9298 7317 2542 1846 0
-5328 -3960 9295 1988 9124 4579 3266 2848 -9937 -8465 1620 55 9532 -3774 8778 0
7147 8587 -9987 5559 -7846 4321 7204 8547 6642 -2366 -4724 -393 -8596 -8293 -4864 0
8755 -7348 4326 -1197 -5956 3707 5365 2580 1603 7789 2547 1691 -3680 9876 2301 0
6176 5911 8017 -9030 9856 -8283 9245 -4466 -9441 -1221 8775 5882 -8921 503 3577 0
-1298 9076 -2284 -4984 8184 -5742 -7403 5082 -6848 -4819 -9378 6963 7539 9937 -7793 0
5882 3207 9693 716 -551 -1814 -7748 2275 7452 5506 5915 492 3440 -2817 -2512 0
1007 6824 -4096 -6842 -7724 28 2478 -8398 3667 207 3748 -8263 -7713 4494 -1755 0
5553 -8799 -7702 -7193 -7992 1400 7039 5760 -6078 9201 94 4314 7577 -4292 3344 0
-7982 5721 8891 7301 -9090 -8607 -3742 -3280 -7759 7940 287 126 -5860 6882 1395 0
-92 4251 -5217 -5900 8449 4431 8076 5464 6018 -332 3795 5643 2565 9576 1945 0
-4756 5318 -6122 1461 2028 752 289 2452 -440 -575 -8615 -3199 -3999 -4254 9729 0
7069 -2276 -1645 9843 -5340 -4711 -50 -8672 9067 -6157 5167 -9004 5482 -9917 5950 0
1317 5603 258 -7158 8838 6661 5889 -1816 1204 -2983 8145 -8737 -5405 9495 9931 0
-3185 9243 2810 -6702 5047 -3544 5005 8269 -2265 -8414 -1538 -1179 1521 -1921 5739 0
9186 -3093 9438 -7091 1131 589 7975 9148 -5040 -7283 -5298 4061 534 -2467 -3547 0
8387 -1632 -6553 497 -5573 3429 5895 -7681 -2105 773 7358 4430 -2212 1224 -8342 0
2786 1025 -5101 -585 3947 -1090 5934 -543 7855 7074 -3542 2251 -3659 9977 4910 0
4897 -6130 2848 -2335 8036 8958 253 4119 -2629 -4328 4079 753 -2042 1204 4796 0
-3049 -5211 3716 1968 -5529 103 9570 -9327 8910 5351 1506 8106 -6497 3637 327 0
8931 7685 501 4763 -4807 5351 6035 -2484 636 4892 -121 3336 -653 149 8585 0
732 7850 9332 -4719 4091 1518 -8677 -3480 7490 1453 -1340 -5054 63 4191 1706 0
-9507 7411 -3567 -8958 -9287 -7104 -4993 9910 8230 7669 2943 2110 855 9339 233 0
6388 5738 9802 -463 1650 2195 19 -3813 5834 -1795 -3001 8062 -5708 -7776 -7597 0
2790 5287 3420 4816 5029 -5011 -5373 -5192 3427 -4225 -6002 2164 8346 5233 -9699 0
351 2291 -1631 -607 3188 -17 -6469 5172 -9115 -3290 -4444 7506 -7050 7540 4023 0
5784 -4712 5431 -8481 -7639 -3085 -3031 -8152 -1333 -3477 -1951 1689 5967 -8753 282 0
-4875 5434 -8885 -7826 9214 -8604 4209 -2517 7020 5235 -2000 1615 9134 1982 9050 0
3176 -2992 -2539 -695 4991 -2305 5626 8987 1795 7083 -5124 -1725 -3191 -8063 -6632 0
1378 -9598 3776 3116 8430 6438 -1808 1837 8624 8551 130 624 7409 4405 2299 0
9913 -5452 1403 5616 9274 -2523 2556 7153 -2161 508 5885 -7914 9667 -8227 8129 0
6896 -520 8044 -1694 184 5358 8892 3699 -2681 4538 -8576 -8033 -5197 9107 1542 0
873 9249 3150 7439 9752 -1032 1220 7007 -8729 384 212 9582 -1485 8299 -6836 0
-9780 -6848 -5124 3534 6233 -4697 943 -747 -853 1101 3417 4913 -405 2775 -1057 0
286 8411 -4891 9762 3684 329 620 2022 -7432 -4523 -9768 -6971 -4037 -7448 -7632 0
-6358 -7052 -7001 533 -4959 1569 -144 4575 5345 -3123 -495 5001 -3647 8447 1738 0
-6052 4553 7472 -7099 9663 9044 2231 1728 3422 -9107 7047 -9912 4917 4294 2615 0
-1391 -7339 6202 -7173 195 523 -1745 4426 -2604 5630 -4751 8554 -2003 -5957 -946 0
4862 1602 4241 -8433 1715 5653 -808 8196 -9115 588 -3086 -8477 -2512 -3140 -184 0
-1237 -1469 5494 2900 -5859 5013 1345 9607 767 4079 5031 771 6627 -2709 691 0
-5208 -5822 -290 3941 -7713 8630 8480 3646 -7664 -3064 8887 -590 4106 6606 7982 0
-4045 -2836 -279 5387 7192 7652 9392 1138 -7882 8973 -358 -2821 5619 -6723 31 0
-191 2048 1801 -3039 -7556 9488 -7405 8297 -3702 1069 5339 307 940 -7915 -7612 0
1648 6487 8427 8599 -6791 1382 3839 3076 9245 -4170 334 3375 -6009 4207 -2450 0
-2721 -2059 -2110 4739 6074 -903 3213 -6182 680 -5257 -1789 1011 5916 5507 -6025 0
1231 -4740 4760 -9527 -3428 797 2175 5171 -2770 1884 -9504 9706 -4325 6499 516 0
-4724 -5920 6457 2408 9979 -6793 -1126 6820 -5971 -9318 6285 1154 -2004 -6788 7859 0
9890 4810 2260 -3893 -2733 -7131 -1820 488 6184 6219 -3485 1700 8142 6229 -1742 0
7813 347 3088 -6439 4624 -9102 9908 -9621 517 5214 -1037 -8655 -7179 -286 7718 0
-8922 5440 5245 -8370 1929 1760 1032 -7710 -9753 -414 7585 3917 -3146 -1179 7515 0
-9290 5962 -4610 2001 -7254 9941 4686 8813 -7959 1523 4846 4585 -5600 2429 -9454 0
-3085 -1520 5710 -3993 105 -6029 -9224 2562 575 -2459 -5593 -6750 1418 -1176 7670 0
-4671 8951 1376 -2482 -7918 -8096 -682 -548 4205 4221 -1077 -6494 290 7652 -2796 0
-1648 3413 7622 -2712 2850 -2853 1587 -6540 -3450 948 1971 -4595 9616 -2826 1377 0
282 -5418 6165 -7227 -1973 -698 9765 988 -1231 3733 -6930 -1134 7604 -4023 3910 0
-31 -4820 7430 5839 7960 -4911 6504 -3422 -1127 8535 3053 5085 1529 -3300 -8281 0
-8523 -490 -7989 -9767 1033 8828 -727 -3428 -7762 1207 8493 -909 126 -2302 63 0
-4876 7210 -601 4795 5001 481 2414 -4869 -894 5630 -6130 -6001 491 -5694 6222 0
1544 -6465 -8629 -6972 3781 6280 9471 4056 -3287 -6296 3949 -3892 3159 6568 -759 0
9587 2110 2656 1607 7582 -94 2566 7967 -3562 -6940 -6376 4957 -7604 4797 7926 0
5195 4616 -3473 7166 -4052 774 9593 9608 -7934 7386 -6761 -6626 -1445 -7375 -8237 0
-1494 -7220 5008 3926 -5074 8554 8701 -1689 -2430 7277 -4378 -1936 7349 4787 -1988 0
-7008 8235 5040 8384 -2265 442 -6559 5238 -7554 7176 -368 8890 -1792 1581 3310 0
2922 -7555 -6053 3558 8206 7379 -1837 9784 -1865 1387 -7829 -9456 215 2901 4764 0
-548 5818 -958 -4940 378 4826 -6671 1454 1816 -4041 5758 1516 3998 1005 5907 0
759 -4485 205 -8604 -9897 373 6515 -8729 3909 -662 -642 4900 4473 -7050 -9400 0
-2986 5832 -7080 2332 6072 -7370 -953 -5649 -21 8736 -227 6833 943 -7734 -2184 0
3931 -4538 9673 -9425 1188 -2804 5555 842 -5344 7307 3176 3151 -9773 1831 7732 0
9112 164 6340 -8004 5694 6972 -6563 6046 -6543 -3584 -9606 7404 6302 8048 5083 0
6757 -2226 7274 1332 -2798 7069 7980 -55 -6631 5943 -9412 323 2757 8838 3919 0
2196 7911 -877 8075 9939 2195 6044 2758 -8264 6932 -5334 3156 -2278 -4550 6569 0
-8605 9535 -5025 9604 -2894 -1401 -4903 5274 -1364 7927 1588 2117 -9905 7066 8698 0
9318 -5668 8731 8655 -2362 -292 9654 2576 7374 -9145 -8736 -8263 -5076 7421 6551 0
-2058 -9690 -1156 9355 4086 1190 -118 -4890 -1072 5276 4222 1519 302 6743 1323 0
8431 -5566 -4153 -175 6304 -8421 6221 8422 -8133 7714 7921 7939 -7412 5500 4400 0
8871 821 3770 -5845 911 4617 2902 3680 -5108 5860 520 -6985 -8807 2997 9751 0
3563 9637 -8369 -8357 6628 9783 -8645 9710 -9410 1210 -6606 -705 9170 5239 8114 0
-5722 -5123 -1139 -3350 4224 1526 6623 -9338 -10000 7425 2310 -9886 1833 -6868 4658 0
7206 -2058 1638 -2681 -3800 -8351 -7283 6975 -5984 1273 -1552 -9674 5309 3035 4043 0
-6580 -4350 505 4803 -5952 -9830 -1499 5210 6296 5600 -2844 -7800 -9071 6881 7846 0
5867 2391 7711 -9436 234 6772 -9612 194 -6813 -3560 -9044 -3281 -4570 -30 9269 0
-9690 9111 -6265 1201 -6080 6445 335 -5715 -4511 7105 -6945 7791 -7370 5533 2610 0
-7692 -5794 3610 -8156 7864 2336 -4474 3400 2312 -131 8523 -284 -5507 4751 41 0
-306 -4503 1736 2365 1124 -4505 2979 4992 -4516 -1012 -3911 -6991 2345 6941 -8648 0
-3956 4039 6876 -2640 -9326 151 -2656 -6256 -2269 7647 6290 1164 -4306 -1139 -1551 0
2187 -2064 2673 1118 2878 -3542 -7640 3703 -660 3437 -8056 3775 6299 -1592 -5642 0
2645 -3638 -4347 7636 -7388 613 6165 3907 8120 9580 3990 8442 5882 2526 2426 0
985 -1515 7767 7633 2867 -6076 721 6016 -2174 -9235 8606 1290 8913 -394 -2734 0
6259 -9553 -7164 -1971 8953 -3181 3812 5312 -9892 4401 -3427 -7477 -4842 3847 -987 0
-5004 1718 -6236 -4861 -1624 -9899 787 5697 -7283 -8229 -7821 4907 3459 -9970 9865 0
-8879 -44 -9860 -2053 -2714 -4222 5902 -5821 5545 8445 905 -8116 -30 1233 3917 0
-6570 7963 -9929 -9215 -2864 6807 491 -3700 4774 7172 5891 8204 -9632 6757 -268 0
4743 -7477 2914 -1174 -9192 2331 1472 8039 -9327 9330 -4323 -6196 5918 -8285 7023 0
-2109 -9437 -8677 -4189 -5651 2812 3852 -94 -4259 1742 9064 9998 -3761 7035 -6322 0
4187 2597 -8233 -9371 -3638 8713 1687 -7504 -8187 -4089 -658 -1652 -991 -8837 -9869 0
5132 8293 -2460 4445 629 7663 9237 3033 9980 -6900 1278 -9406 -904 2802 -8737 0
1740 4324 3761 -9745 -5906 -8049 4035 2942 -1342 -7508 -2636 5721 6852 3994 -740 0
-2533 2886 6710 5895 6539 4417 -3763 4179 1686 -2522 4673 -1651 3729 1717 -8589 0
4174 6998 3836 -7814 -4139 4479 490 -7732 6814 2175 -5579 -2018 5039 -6961 3767 0
9936 -6821 9929 2631 7902 -2038 -8035 -3070 -3058 -1967 -3165 -4550 1486 -5614 6325 0
9420 -5661 5254 -5884 -2037 -2920 -1060 -2882 -1096 6924 7997 -6500 8076 -6276 -1581 0
9413 -2576 -8847 -364 3246 159 -6990 3090 6527 7933 -9832 4209 4600 2209 7668 0
-2116 249 -8519 -2942 -8166 1831 -6403 1115 3681 5393 1159 -58 -9764 2383 1874 0
8870 -8484 -5171 -8538 8898 3235 7143 -5952 4416 -7948 420 6563 -5799 6807 -7103 0
-8622 6988 -1631 -9861 -1240 7077 4963 726 -1404 8111 7925 8141 -851 -9377 434 0
5411 -4194 -9477 5517 -3140 2642 -8713 535 -1485 -1126 -7551 -3693 3603 -4809 8862 0
6685 -7431 4089 7389 9032 -6568 -6376 -7468 -9999 6589 4380 -823 3080 4709 -8525 0
2857 -8770 -6210 -9895 5477 -8691 -1200 3646 6404 8444 3462 3994 -9287 -4117 5119 0
-4617 -2178 -9382 5851 8975 -4188 -6967 -9866 -6016 3579 8639 -1499 1279 -2361 709 0
866 4975 -7231 8913 -810 9576 6289 6407 2685 -8784 8111 -208 8809 -7789 1581 0
-8024 8408 -4152 9188 -3102 9042 7906 -5914 -1041 5918 1142 5838 -6088 2772 -1923 0
8620 -9529 -1139 3523 8541 6179 3870 -5335 -9795 4451 -173 -5852 54 -2054 5360 0
8597 5214 -1783 2311 -6003 -1345 4946 3703 6344 9545 -3664 8373 5968 5389 7159 0
-9312 -2201 8528 -1133 2811 4921 1031 1818 1644 -7697 -3347 8462 3546 -8954 6159 0
6074 8954 -2842 -8018 9813 -7928 -9636 -7677 -8316 -607 -2945 -5002 7870 -593 878 0
3663 1866 2404 -7021 -6522 -1548 6350 -1009 480 4942 -1706 -4995 -6754 -4961 -136 0
-8218 -780 6607 -5093 -9065 -4648 4826 -5217 -6054 -6120 -629 5787 8995 8785 -2151 0
5589 -634 5031 1032 8143 -8137 9781 5518 9795 -8224 -6735 6074 -2904 2865 2094 0
6979 4618 1588 -9617 -4863 7237 -5281 -3925 -3993 414 -8957 5776 -3810 1549 -7968 0
2319 404 -7275 -5271 -4017 -1762 -3312 749 -7821 5582 7514 -2444 -1349 2966 9673 0
9035 7114 5039 2249 -5056 4294 -9191 -8302 5781 -1124 -7362 4423 -9909 8063 6066 0
-7130 7094 9829 -1063 -3336 3625 -1608 1106 -1633 4062 7132 -6587 -7891 5739 -2363 0
9845 7502 9429 8862 -7871 3258 3146 5774 -4762 -9641 -5969 -3666 -6532 8047 -3613 0
-6574 -2514 -2922 7511 -3984 1885 -8943 1097 8435 7584 -1839 -4170 -194 3821 -8299 0
-2775 8323 -7447 7393 -8398 -292 -2454 7722 -3467 -8919 9983 6432 -388 -8385 -598 0
-8833 7172 4395 7094 -2599 4698 5230 -9801 9672 5631 -9685 2915 6611 -1131 9038 0
2854 9099 -3509 9036 -3952 -3088 -3320 -7598 5576 -1277 -3043 -3132 -4500 4573 -627 0
8035 -8913 808 8167 2842 -4670 3428 3191 472 -4385 -9322 -773 -9524 9165 8494 0
660 -7817 -9028 -292 -637 -9547 -1310 -8356 -8669 1463 -12 -4779 -8411 1940 -6578 0
4498 2851 -3019 6155 4057 -1673 -5329 -6864 9367 794 -8710 1376 3486 -6139 -7641 0
5265 4498 -4954 4890 -1258 -1928 -5960 -5662 3024 8330 5422 1402 -5341 -485 2840 0
-7695 -8653 7283 -8159 1642 -478 -4240 3625 593 -7502 4235 -4573 4971 -504 -9269 0
2123 8690 -7555 906 339 -2267 -6885 -290 4861 -6731 7504 2679 8952 8544 6859 0
-1511 -1706 7573 -4482 -8249 -6129 -7860 4922 9459 7010 -1190 3984 -9235 -1419 9061 0
6635 7496 391 3685 3813 1305 -3297 -8809 -3035 594 -8355 2268 1641 9906 9281 0
1481 7017 -6586 -6243 965 5848 9843 3520 -2794 8614 -4186 -8552 -5821 4212 8023 0
-540 -6075 5845 -7376 4401 -6837 7594 -6380 -8928 9763 977 8056 872 -9024 -7713 0
-8430 -6347 -5061 2049 5258 -8998 -372 -4890 3415 2886 5035 -4926 2592 -6076 -9407 0
-3249 6628 8542 -1806 -1651 -2629 1927 -3413 3314 -1301 6327 5789 -7122 3074 5576 0
-7283 9580 458 -5989 -2133 -8568 9083 8198 -2658 9762 -6343 -2294 -7816 1358 -816 0
3337 -2461 -3267 7921 4144 2103 9822 6322 6242 -6285 1072 -95 5801 5091 -9452 0
-6390 6489 2696 4607 -6582 -810 -8513 -4245 8214 3755 -1553 -6095 1474 -72 -7672 0
-1435 -7209 -7071 1356 8946 7267 2176 -5014 7487 9617 -658 5262 3258 -8626 -2767 0
-3927 -6278 -8450 5741 7068 5720 3456 -3843 -6232 -7904 2674 -529 -5233 -5553 5925 0
4810 6015 -5232 647 -6539 2403 9348 3314 6955 -5504 -660 2673 3388 31 -2609 0
4550 4048 -3893 9649 -3755 3233 -9112 -8261 -1201 7523 -5992 -1500 -3092 1764 175 0
-267 -2076 -293 -1928 1207 -4931 1142 -8803 -6687 9924 8042 -4855 -4189 -854 -245 0
-784 5265 5561 -8299 3814 -829 5443 -6641 -6586 7227 6776 -3392 5026 -3448 347 0
488 7732 -4417 5743 -2202 7970 -2443 -2355 7870 5425 -5584 -7234 -7852 -365 1182 0
474 -5239 -9307 5873 5361 -3444 2283 -1199 4372 -9010 2063 4196 5565 917 -6881 0
4851 3347 -144 -4012 9229 8758 -6756 -2053 6351 -5909 -9924 -444 1388 9429 -1831 0
-7486 -6295 -4849 1967 4081 -9699 -6337 8689 -7289 -1278 -105 -7917 9623 -7446 -7037 0
-7219 -9322 5637 -5765 6389 -3604 29 -3349 9259 7570 843 -577 -7985 3847 -4433 0
-1445 -2179 -5834 -9595 -5935 3265 5569 7535 1080 -9671 -2334 -185 6776 2613 6347 0
3498 -8547 -5808 -5968 3876 1300 -8678 -5224 2533 -1349 -1381 -7740 -4985 -9652 5022 0
-7299 -3253 -2229 9039 8226 -8418 5258 8614 -1862 -1948 -9664 -9971 1135 -3528 7760 0
-4030 1706 -5029 -4550 8361 7380 -6354 -2674 3271 -2453 -2343 8363 -2598 5992 5036 0
5229 7580 -5531 7158 -7317 -5076 -7102 -1594 2452 919 -4380 6698 8216 3521 -693 0
1 165 -8506 -4689 7225 838 -8247 -6802 -9838 8042 -4309 2237 -1794 5026 -800 0
-9560 -5021 865 2551 -4919 -834 941 7273 3794 7996 2028 152 3071 -3319 -6739 0
-1549 -510 6671 -7778 -2514 -8375 -3806 -4618 8968 2085 -3065 -9573 336 -8844 -4767 0
-2799 9253 -616 5289 7530 8381 -4962 -8862 9221 6856 5359 -568 -3436 -1873 -542 0
1222 -9657 -4394 22 4990 9700 -7107 -5292 9224 -4259 -8500 7782 -3769 -3654 -1344 0
-8689 2495 -2996 2068 7595 -6096 -982 8222 8325 4528 -4303 -5810 -9438 6304 -4403 0
6707 2819 -4978 -5370 -20 736 1108 4361 -7459 -2230 8708 832 -6803 -3400 8647 0
5330 -1476 4970 -4919 -7441 6210 -2123 2266 9274 -3646 9913 -4146 3487 712 -9101 0
-9734 -7050 -6984 -7009 -4098 5706 -4631 8555 6634 1460 6148 8078 -4919 -4192 8313 0
4755 6225 -8693 -8114 7479 7579 6059 -534 5544 -4863 -5591 37 -8036 8782 2475 0
-5869 1487 2335 1085 -9497 -2699 7221 2231 -6180 -112 -3419 -496 -2995 -4987 8365 0
-5062 -3181 -899 8511 -6079 -1672 -601 4234 -9112 9264 -7989 -8374 8073 -4925 -9172 0
2279 -2454 -6521 -3605 8891 2819 885 9447 131 -4171 417 6032 6217 -3372 -3597 0
4685 -6013 -2007 4538 4777 7098 1323 -4083 1353 736 8243 7261 8262 -1517 9521 0
-3647 -5874 -6040 -3565 -5586 1687 -8034 3321 -7910 -5706 -3857 -2799 4703 9167 -4423 0
3546 5531 -4737 -411 2764 4513 -7725 -654 -7416 1919 3513 -5100 2993 -9063 -5929 0
6780 3912 -5616 -4892 4136 -3977 9459 6127 8917 8084 5523 -8141 4160 -6622 -8514 0
-185 3319 -103 -1789 1723 -4774 -317 1171 -5313 -4848 6515 3198 7182 7117 -2864 0
-9954 5408 -7382 -3797 -2463 1477 6516 5135 3461 272 -5938 4160 9508 -6764 -754 0
-8928 -2184 8767 3665 4242 -4209 -2090 1536 5110 -8954 69 -6632 1271 3568 2797 0
4114 -7384 -3886 -3431 -7743 -7090 -7965 -3483 -4872 9628 -5271 -5470 -9267 4853 9745 0
-9476 2741 -1971 2817 128 -5221 4542 8392 -8706 -2281 7957 -9907 9804 651 -2467 0
7645 -2313 2762 -6648 -9081 3926 4652 118 8962 -7654 5870 -743 -4199 6680 -8634 0
-7074 -7644 6941 -4770 -190 -6267 6113 -5703 744 -8635 2923 9533 -3111 7325 7989 0
-8216 -5765 -4152 774 -6403 -9394 -7829 2803 -5144 3408 2951 -2340 -5859 -2278 -161 0
2440 -2864 6578 -3076 4906 -7187 -2914 4996 -741 -1728 3046 -3607 6137 5736 3060 0
-6775 7753 2827 -2429 9169 7667 3196 -2261 1252 4353 237 3770 -9844 5675 -5090 0
-9441 6455 5993 3019 9040 556 -9606 3327 3358 -2875 2256 8375 4044 8659 1123 0
-9535 274 9709 -1806 4912 6615 6965 5797 -459 -6761 -6204 6825 402 -7710 8803 0
-9727 -5363 6984 -8549 3796 -5191 -3109 2099 -3568 2436 -7016 5786 7077 -9584 -1650 0
3579 7659 223 -1698 -7363 7608 -4301 5181 -9189 -3815 3115 8716 -2313 7950 1205 0
-1326 -7115 9210 641 2116 7679 -7946 5434 1126 8444 5401 -9509 -4133 -7963 -2435 0
3493 1886 1906 -8417 1904 -7094 -8069 9217 -2640 424 -5930 7503 2297 -9942 6734 0
-8185 1449 3591 3205 1712 4019 -7998 -59 2384 2655 -6693 3570 -3870 5237 -828 0
9461 3125 9855 3582 4843 -8180 9539 4684 -5918 -9652 -821 8410 -5821 3682 -51 0
-6986 -5057 -6540 -36 -9381 -2073 2208 -3398 1653 -2462 5689 -7105 -3067 992 5156 0
4203 4303 -8270 7585 6936 8891 -4158 -9379 -4086 2035 4342 -8890 289 4251 2393 0
387 6613 -5402 -31 1585 -4027 7641 5913 -2580 -4699 -4534 5236 -9749 2089 4606 0
-924 869 2284 8501 7273 2793 3467 7003 3558 3059 -2139 -7418 9548 4209 -4538 0
-7843 -8830 8230 9777 -9383 5737 -5369 4599 -6496 -4437 -913 10000 8806 -6139 -3569 0
5109 2952 -702 -7270 -2130 -3767 4568 -593 -8165 -9496 -6807 -2447 -7103 3302 5129 0
-8563 1481 9417 -1505 4326 -7196 -3812 2432 6637 6080 -1941 3382 -1286 5821 1135 0
-4542 -2799 -5251 7943 7110 3981 8515 -6643 -8431 -8762 -4914 -8583 -4912 8341 367 0
-9990 -8503 -3112 9354 2037 2460 -2378 -6001 -8022 9185 -5709 -4541 -3268 -1087 4607 0
-2568 2178 7440 -5447 -2443 7380 6917 3307 -4009 9121 -87 -4178 2195 8705 -6431 0
1742 914 1051 6231 8401 -7744 -2666 9341 1429 -5199 -4441 -7104 -8632 5462 643 0
9935 6746 3270 6353 -9938 -5801 -7612 8120 -457 -7963 -4430 9450 -5027 -508 7832 0
2816 -2599 -5607 6956 -6628 5160 -5699 8627 104 -3892 1694 2503 -1024 -7228 5519 0
-8808 3346 -2231 5615 -3549 8774 5202 -8969 5384 860 7593 1031 7893 -9676 6715 0
2383 5787 1022 -4686 7174 -8372 -7615 -4371 -14 -7181 -6031 -3191 -2292 9491 -3417 0
4912 9274 7257 -5815 -1409 -4635 253 -8538 1450 1301 3068 -1823 -6830 9072 -2528 0
4104 -9325 8511 459 8547 -6056 5520 -1844 4015 -297 3412 -6329 -4298 -3854 -5803 0
-1132 -1840 -2692 2767 -1234 -686 -5659 -2565 9855 4270 2605 -3634 -2912 487 2280 0
-9975 1220 1459 6125 -9820 5914 5798 16 -7530 -8650 3331 8166 4999 -8390 -5795 0
-7838 8801 -4989 339 -3297 -9447 7074 -559 -3651 -1883 -9322 -9410 6816 7152 -6454 0
-77 -1285 -7543 5605 6491 -3389 -9568 274 -1896 -7697 3072 6237 -6075 9558 -6172 0
-4274 -5816 1986 8517 -784 -6644 -5819 5162 -2012 6795 -1989 3302 8952 -7873 -6957 0
-7223 376 -270 6626 5890 -861 -2404 -508 -8456 -1142 -3205 9975 -7080 -8896 2128 0
8467 -7221 -4615 7022 4827 -1879 895 -2697 -8003 4486 -7880 -8833 4937 -702 5914 0
6128 -4225 -5812 1576 838 6358 -2538 1570 2443 2842 4033 5066 -5553 5757 2639 0
4400 -3633 3314 8520 -3468 2033 5888 4203 -5339 -1171 6089 -5207 5544 -772 6191 0
-3475 2668 -2665 -8834 -9887 -6754 -6447 -6022 8894 -5311 -1251 8808 3734 8052 5373 0
-7451 8775 2167 -324 1608 2414 -1515 5064 -3409 -5847 -5607 -8429 2740 -6791 -7587 0
-2155 393 -9270 6291 522 -5065 -3507 29 1392 -6502 -8397 -9384 2096 -4240 9335 0
-5979 3290 -7322 -9056 -4435 -5683 9138 -193 -2474 -7582 9706 6481 5748 -2511 4598 0
-7807 -4062 -8516 7178 -1301 6487 9879 -2162 -7378 4497 9904 -9314 -215 2821 5238 0
6944 9141 -48 -7692 -352 -9208 -3065 7758 3401 436 5085 2831 -334 5762 8037 0
7490 8434 9228 -3721 -7083 99 -1176 -9667 6424 -3459 9314 -1942 481 -6843 8022 0
-6866 -2538 -3006 -8464 9053 -1160 -8115 1605 -9811 -2932 -5549 2262 -8611 2901 -5085 0
9848 -8750 4022 -7755 4889 -2214 -8158 4877 4860 -9064 170 1883 7983 -1032 4848 0
6892 -6573 -3257 -3891 9225 2223 -4031 -1537 -238 6766 -7658 9823 -7776 -4743 -280 0
-4669 -7206 1300 -3546 -7732 -7372 -6834 -6897 -3645 2578 6213 -3583 9359 1992 -8885 0
8373 2589 2207 3207 2221 -8384 -7358 6808 54 6781 -7132 5177 9728 -3935 5210 0
3785 -1172 2117 519 -9596 -1838 -270 -7816 -5122 823 -8249 4289 7114 -3723 6034 0
5645 -9673 -4955 -3702 -7272 880 -9072 4272 9226 4350 -8727 -8331 5501 -9589 -3858 0
-3670 -9318 7850 4521 -23 -5743 -6570 -1536 -5946 1126 -177 -5846 8324 6058 -5640 0
-9768 -9647 -2767 -3392 -4566 -9117 -3033 9576 6068 -2503 -3494 5894 -3369 -9473 -8435 0
-1177 5533 -5549 1355 9531 4890 -9909 -9121 -6217 4836 1955 4627 -1649 342 -176 0
-6487 -300 -1157 -8964 8702 3386 -6385 4837 5036 6967 -3359 452 -9232 -865 8253 0
-9103 -5419 5738 -7506 -9626 -5182 -8466 209 5652 208 -7961 6781 -5670 6606 -2715 0
8248 7021 7802 2627 -4976 1256 -4284 -7614 5094 -45 1764 -7721 5989 -5856 -4703 0
-9890 1986 -113 -3504 8086 7953 -1017 6487 2782 -840 9465 7705 7404 1681 -3752 0
8581 6031 -282 5291 2008 -1797 701 -4173 9372 9796 -6447 -5634 -2447 4232 -8772 0
-223 4274 2805 -9890 5563 -782 -186 -2607 -2468 3189 2823 4251 -7800 -6469 -8940 0
5213 -7225 2587 -5429 -4068 9304 -9743 5874 3718 6269 8119 -7443 8378 -2792 -9843 0
2419 -4363 2128 4574 4491 -1895 7558 -2335 -2464 9561 -4250 -4593 -7149 -2039 -3168 0
-9214 7777 5202 -6135 4880 6604 -8720 2811 -8045 -703 9900 -9656 5488 -2659 -7284 0
5059 -8937 -8441 6681 -3299 -2475 -1945 7372 3461 9893 8979 -8120 -9030 -2749 9153 0
8413 5203 -1677 -782 3025 -5189 -3960 6410 651 -3059 -6804 -4480 -534 -5603 -4925 0
-9872 -4930 -973 4404 -3395 -7148 -1999 3556 -5555 3274 4927 3237 -2845 6664 -7115 0
-9774 3518 5620 -3373 2659 5251 -7725 7977 5426 -9830 1329 -3848 7495 496 -3676 0
917 -2744 8772 -6099 5907 -1788 6817 7035 3040 -496 3515 6083 3483 -8147 -1834 0
67 -6397 7783 -982 -8081 -8653 -447 2103 523 2151 -341 -1579 7968 6494 -690 0
-8601 8899 -7776 7117 7569 5527 8367 6719 -6510 -2752 8218 6835 -5407 6437 -8293 0
9606 896 -978 1517 -6651 2285 955 649 6187 4186 1420 110 -5658 5766 2332 0
-5330 2862 -5490 -4284 6294 -3480 -2323 2752 -7337 6788 7916 2889 -9317 5003 -3183 0
5521 6086 2121 -2660 9373 4254 2965 9068 -532 -3035 5168 -9765 665 3437 -1594 0
-8540 8676 -8941 8151 219 8077 -1494 9377 -7023 -7562 4203 -2573 -2796 7064 -2193 0
-8782 234 1730 -4063 -6129 5974 5895 2048 2276 -9659 661 9812 -6942 -9519 -424 0
2663 -333 -9160 -9450 -8829 -7118 3782 -9344 8487 -2618 3594 3004 -7601 6866 6656 0
5506 -9460 6978 38 4011 -5060 -4735 3323 3714 -3088 -6766 7816 -286 7441 9850 0
-5743 7413 518 -4736 5133 -3766 2192 6521 -9257 -9619 -7324 1060 -4439 -1858 9235 0
-3353 -6256 -8714 -9996 -2106 6979 -417 7726 9518 3038 -6709 -2264 -3534 -2786 -4759 0
9715 9382 -6885 7434 -4484 -657 4185 5544 2021 -9068 690 -1323 7757 -9752 -424 0
5276 -1215 -9314 9369 7856 -3805 -7871 -5475 -9410 -1846 9276 -5199 1950 7374 6745 0
6424 7755 -9978 431 8546 8626 -7714 -2507 -214 4540 -9583 -3787 -9410 7137 -2556 0
4694 8740 3824 4242 -6478 -5628 -8601 -2062 3973 9887 -6143 2201 7946 3341 -3328 0
2716 9728 -640 -6077 1292 -1917 8150 8952 -1819 -7331 -7000 1373 7069 -6871 6761 0
-3300 -3277 7713 -3717 1201 2935 8662 1883 -6747 4502 -2389 7211 5618 7942 -6253 0
9208 -7696 7883 -9494 -1111 8818 6832 9880 -1946 703 1441 -3945 54 5599 -4928 0
-2431 7107 -3193 -2538 -3172 -2297 -6330 -1536 -3830 4283 -4486 -8421 -8716 4645 2053 0
8115 -7781 7983 9555 -9008 7742 -4504 3209 6916 9951 -3647 5033 7116 279 2931 0
-3306 -8112 -3346 -7094 7570 4889 -2395 -3410 1511 -6227 1230 -6103 1184 9746 -9143 0
6309 262 6714 5033 -8408 -4055 1647 -5295 -6619 -7397 5285 -1311 7112 6136 -8726 0
1875 -269 -4949 -6604 3282 -4415 -1368 -8164 -4102 -2993 166 2680 -5399 -9843 -5318 0
3773 9497 486 -4646 -3953 5986 2273 5888 129 1968 531 6993 -8971 -4462 -787 0
-2226 4005 -2610 -6765 -7764 1832 -4196 8423 3102 7580 3939 6299 3482 -9329 3019 0
8519 9231 8264 -1871 8039 2567 -9541 950 -8262 -4259 -9856 -5984 -5067 -1895 -78 0
-7736 -2687 9268 9172 -8470 260 -8384 -7656 8134 -7810 3133 548 -3468 -3175 -7894 0
8353 -9136 -5122 -2524 5286 5887 -1813 297 -5476 -2791 7834 -9855 -1828 2101 -5980 0
6449 3608 -362 -4439 1603 -8162 -1717 -1185 8280 -1970 4457 2862 -8179 -6844 -3957 0
-5252 4673 -9606 -1187 1115 -2029 -6010 -4549 6169 -4720 -9937 -3456 -1505 -4475 801 0
2765 1814 -3646 4105 2412 -5586 -9625 6325 4678 1928 -4263 6489 -7952 738 -2163 0
-6568 9786 -5133 5642 -7841 8590 -2559 -1387 -1048 -8165 -964 8869 -2730 -3660 -3427 0
-3430 5425 9430 912 -9866 7113 1209 232 -1792 -6913 -8625 -7683 -6222 -7944 6947 0
-5864 4428 -9074 5122 4071 1998 -4837 1574 -165 6150 8109 9600 -1546 2356 7211 0
3365 -4277 -5879 1804 800 6820 -4467 5712 7528 -8706 6594 -2258 5197 -7406 -8337 0
4368 -8346 2726 4180 -6889 8228 -2748 -6059 4922 -576 4111 98 7070 -6939 7274 0
7557 3747 1223 8537 -1575 -1425 9600 54 9029 -1910 6025 -9805 7205 1629 -8664 0
518 8089 7691 -2599 7262 -8111 -6357 3624 -3607 -8878 -1187 -8192 1079 7007 -2087 0
7777 -9567 2750 5485 5905 -3788 -1914 -8322 7065 9187 -4363 2791 -5205 1896 -471 0
1202 1429 2283 1983 4250 -6989 -6703 -4095 1238 404 4049 8322 -938 -2670 753 0
-4907 -7986 6324 -5909 -2907 -4848 598 2771 -2515 -266 -9543 9374 -865 5852 6363 0
-8350 -9771 8241 -7635 -5839 -1157 716 -7926 3091 -1242 4861 -7109 -3265 -364 8407 0
5790 -2371 -322 -8241 -8110 -6754 -4455 -8238 -9048 5072 7501 4335 -5682 514 9284 0
8990 182 6343 -6073 4870 3299 -4862 -6507 -1828 2342 -2545 8295 3590 8177 -9072 0
5801 -1598 -5621 -2664 5740 9562 499 -2315 -2314 -2975 7148 8189 -7284 -3825 940 0
3623 2529 4912 623 -4722 4514 -6412 965 9816 -6143 -9207 6159 8806 -7458 -7613 0
-9732 -501 6520 3007 -8318 -8105 -1916 4807 3767 7935 682 -8778 -3603 487 1788 0
-7174 8878 -4301 -713 926 -5644 6001 1077 -3030 -8366 -7648 -9305 -1301 -6378 -601 0
-8360 845 -2242 2144 -2436 4463 -2790 437 3344 7802 1228 -3385 -4633 -9652 -5637 0
9400 8467 2708 -2000 -1159 1255 -7563 -6517 7777 3049 1513 6340 -7393 4930 -8982 0
-4637 7655 1699 2009 9477 2020 -4377 -8012 -7243 -703 2278 -8075 -4999 1391 4513 0
8356 4727 -8376 9489 -2571 -9410 -2043 2258 -9522 1124 -3455 8880 -691 6357 -1490 0
-6330 -9276 9957 -2022 1386 -9557 -7897 8711 9477 -1395 -7322 7096 334 9078 -7234 0
9719 -8975 7203 8110 -3024 -5795 -2259 -2107 -8514 -4753 -5889 -8222 -61 -3797 8549 0
4643 -6913 4722 -2584 -3843 -9308 -3567 -2402 690 -4414 -2401 -4273 4115 -4846 500 0
-5936 -4459 -6147 228 -4329 -6932 6910 8879 -1781 8903 2311 7374 9801 1514 -724 0
53 -1292 -717 -6806 -7302 -422 -7523 -4634 3044 328 -3156 6785 -1558 -6358 -6106 0
-3415 -128 -5416 -7812 -3222 -918 5381 6734 -1690 -5233 -2380 -5248 -7938 -8074 -3966 0
-6695 -1457 3235 -5046 4553 3199 6240 -7985 -9130 4659 3156 5696 3744 2775 -1474 0
1534 -4609 -7614 -1223 -4595 6914 -5036 -9772 -7168 -516 -5436 -5503 1495 9906 -3937 0
6133 -8367 5786 -7752 4879 4329 9160 7004 8133 -6668 -7826 7953 -6197 -3882 -4217 0
-7809 1260 6352 3852 1389 7305 -713 6572 7149 401 7433 -7279 1325 3240 172 0
-9673 1319 1156 4635 -4515 9952 8814 3197 -4904 -6316 382 -8821 -5354 1581 -1339 0
4815 -4460 7304 4103 -5765 999 -4563 -5946 1269 3557 6958 -4181 694 -8607 -8935 0
-541 8079 -4702 -1339 -5254 -939 3401 -219 -6715 7521 -7634 -1197 -6664 3244 -478 0
-5974 -5557 7807 -2218 -8004 -2049 -2324 7477 8539 3320 -1228 9330 9135 1054 -4558 0
