c Random formula
p cnf 10000 1200
5681 6567 6924 -2552 2262 -7576 -281 5873 -975 8775 -1518 3257 13 4566 6280 0
-9029 8866 998 -2132 -8475 1514 1034 977 6813 6296 -6371 -8789 -1632 -5983 4091 0
4217 9310 5382 1950 -1986 4281 -5644 8576 9827 6067 -8243 6580 -6546 2050 -9150 0
-9756 -1229 -1939 -8482 5672 6826 -3222 9792 2620 1710 9926 -5049 -2322 -5136 8261 0
-4304 5434 -6429 4483 4830 -3252 -9535 5566 9652 7657 7565 3073 7419 -306 4735 0
-7554 -2681 9945 400 6806 1348 -1540 -5021 -3690 -7418 -4133 -4286 867 7239 916 0
790 -4531 -4209 6115 4479 2355 3076 1675 8537 -9536 1237 9692 175 -7658 4963 0
9160 7344 -8631 1849 -9920 -8396 -1675 1204 780 4865 1865 -6627 3484 7449 6340 0
5425 6928 -1129 -2769 5012 5444 -868 -4244 -7674 2915 8519 6454 -8031 4891 7111 0
134 2393 7579 2503 3434 4907 6030 -5176 898 7175 9649 2515 -7727 -7736 9279 0
9551 -3116 3312 7767 -920 8937 -9712 2305 -1833 8880 9283 8360 7128 3030 -4098 0
-4413 -5054 -4020 8147 2461 3722 4133 -9317 2517 563 7739 8672 9748 7996 5104 0
-7683 6585 -8769 -4759 -7389 -5676 -6824 -6896 -1999 1427 5504 5579 3631 9356 -1436 0
-1240 3477 -4595 5492 -5971 7046 398 7738 -5414 -720 2058 -1417 -7280 733 5915 0
7075 8174 7066 -3588 8966 3870 3551 706 -6841 -5038 -3523 -1602 -1976 -6661 9168 0
-7314 2693 -3553 4608 4030 -4714 6112 451 4491 -7735 8549 6692 -3559 -5822 -1242 0
-1637 1068 3396 5872 -9643 6393 1177 -5891 -617 9100 2360 -6668 -3979 7170 1735 0
-6831 1264 5865 -6582 -3314 4318 5403 -2031 -5375 -5731 4341 1195 -5118 -1233 5620 0
5170 -1109 -6295 701 1011 -3400 -3580 2066 7519 -3186 3825 -1518 -9800 1318 4112 0
-2901 -9306 4821 -1006 9900 4207 -7832 -6223 -9058 8805 4936 -9340 4788 -1121 9458 0
-5286 9535 -1359 -1401 2569 -806 8311 3307 -1837 6938 -1738 -2323 -3069 2063 -1285 0
9018 790 -2921 4249 4970 7235 803 4306 -2266 4386 -5766 8659 -8608 7996 2503 0
2081 5132 -2540 7561 -7811 1111 6868 4004 5328 7922 -2695 -5229 6409 2441 -4893 0
9093 -7644 -6113 -9761 -5311 6906 7206 2483 -2886 -9636 4771 -4013 -2911 -5633 -3490 0
-2294 1753 1681 9722 -6409 9027 -9542 9411 5254 1254 8458 9193 3449 -3102 -2726 0
7077 -9178 6477 -1503 -4727 8600 -1733 -9503 4664 -2841 -562 1739 2929 7042 -909 0
5742 4095 9743 3244 -5729 1385 4319 5981 -3136 6442 5193 -9683 -4334 9305 -2761 0
4646 -8099 9542 -369 8404 -7085 -6678 5103 -5984 755 -4618 -6481 -9326 -8605 9856 0
973 6423 -6604 8093 -1353 -5340 4675 -4123 8797 -6946 8756 1940 5278 189 -9041 0
385 5742 5380 -7296 3311 -3383 -2961 4267 1830 -1077 -3337 -8266 -4877 -1371 6657 0
-7316 8303 3550 1358 5372 6862 6696 2794 -7510 8179 1821 1142 -2646 2968 -9350 0
9121 4941 5100 5659 -8963 2059 6246 989 3823 -1414 -1263 7300 7936 -445 1093 0
-6030 3701 5937 -3400 3785 7601 9605 -4293 6033 9633 5983 7791 -864 -7950 -1577 0
-7861 -5026 1837 4597 9188 1253 7730 4614 -5674 776 1031 -9324 -6945 646 6677 0
-8239 -7365 372 2706 2658 3685 283 4351 7018 -5199 8989 -5667 9118 8739 3392 0
-5729 8778 9983 -5696 -4821 -7198 -8353 -4296 9141 -6711 1320 -9699 9864 -5767 4449 0
600 4995 -7687 3372 -372 -7990 -2545 -452 8831 -1637 -8538 7470 9167 -1778 -7242 0
3014 -4831 2260 -3556 -7204 -7580 -458 -3674 3710 -4120 8240 5455 -6120 -5171 -4133 0
9129 9196 -9602 -5341 -8148 -8672 -4722 -5531 -1731 9931 -41 -5909 -9164 1183 7420 0
-1010 2330 1685 5847 861 7252 5856 5612 -6727 -1285 -7926 -2126 -858 -7060 8751 0
-9959 2210 -624 -9997 8595 -6505 -1772 8524 5846 -3395 921 -8413 2977 -210 5496 0
-6059 -2868 -9648 5148 4262 209 -3174 -9569 7930 -3056 5347 -2622 8868 -4384 -17 0
-2494 -3317 8918 -3664 -6851 5019 7890 3313 -4762 -2156 6691 728 -4709 5871 -5392 0
-8882 -6387 -7899 8799 2488 -5371 7275 5911 -183 -5251 -6988 3657 6210 4763 8346 0
4275 5006 -3776 -852 8974 -5622 3590 -8129 8186 9924 -9625 7094 5439 -8340 6349 0
-89 -1695 -1065 -2385 -6274 -3443 1182 3433 -5112 4318 -1762 9577 -4500 -4355 -4066 0
-7094 3981 6370 -5524 231 6474 2346 4773 -2292 -6413 3463 5657 9602 2973 -450 0
-1478 -1390 -8988 7135 1612 8295 -4021 5012 1392 -7703 -6387 5406 1834 -7914 -2370 0
9668 4916 -4073 9345 8728 -9532 -7300 -3206 -8196 9078 6583 -2087 -9870 8954 1738 0
-786 -8000 1144 6331 -9127 8249 2177 -7050 7477 -2528 7084 -4320 -8554 8230 2294 0
6244 9157 -4619 1831 -5779 5797 5664 1223 6471 -1780 677 -6806 292 -5202 -9703 0
6344 9181 1648 -5039 6251 6473 -7433 -2679 5602 9044 6445 -3517 779 9288 3435 0
1859 3240 -7235 -8858 -1089 -1283 -4138 -500 3164 -9651 -5801 -2718 -7947 -6157 -9536 0
50 -3257 -180 -4069 -9976 1449 2365 -4895 -3421 -4532 -8043 -3537 894 2857 -4540 0
1254 -6711 -8961 1146 8884 6599 6611 3649 3172 8824 -5998 2374 -9552 -8524 2508 0
-9273 -3038 -8502 4928 -4567 1890 -5699 -8835 8423 6793 7190 5057 9240 -3119 555 0
-4022 -7222 -8686 -2202 -5570 -5774 6013 9474 -7611 -9064 5788 -7954 3116 2394 -9631 0
3160 801 -2007 -7119 4604 4991 -5542 -1267 5879 -3531 -7664 -2983 -9715 3685 -5029 0
279 -5360 -3285 -4187 -1191 -3903 6797 -8970 -5822 -3123 -5472 4009 9308 -7040 -1662 0
-2057 -1047 -9070 457 3353 4070 -1725 37 4410 -2638 1825 2083 3918 -4503 7479 0
-8737 -8369 -5972 5870 9375 -229 3078 -7595 -4325 -2404 104 5001 1095 -5473 7686 0
6875 8199 2766 -1542 5780 4582 -8628 -3200 7933 -3610 -8253 8825 -2407 -4526 -8590 0
2592 27 -6444 -3084 -1840 -2855 2206 -8255 -7324 792 7105 9047 2817 4923 6291 0
9369 6775 -176 -5940 1026 2454 750 -7117 -3452 -2188 -5491 -6556 4507 -6539 3536 0
-3346 -3347 1980 -9600 -9430 -6802 -6448 3664 3917 -7714 5287 4508 -2305 -7795 -8158 0
-5311 -4448 3542 119 -8008 120 7947 6757 2785 -6474 -4915 9818 -7876 -2267 7742 0
-8246 -4491 -505 9335 1847 8437 -942 -2728 -2885 7940 2833 -4777 -4320 8876 1448 0
2176 1943 -7632 7337 1529 2542 -1461 -1250 -6625 -5755 -9436 640 489 9199 4360 0
-8946 -1398 -3536 -1175 9269 5272 7006 -7276 6322 -6689 7811 -2966 -7669 -5110 3925 0
-4722 -1721 8382 4455 -9828 2716 2097 3535 -1461 667 4343 5706 1481 9655 1404 0
1924 9736 -2921 -7509 -3838 3336 -7226 -8785 1214 -1001 -530 2868 -3163 6602 -9948 0
-5954 5019 7007 -1667 5640 -9208 -8977 9575 3442 -6747 2288 -3049 634 -4235 -4252 0
-8746 -3428 2658 8605 8842 -7574 9364 -7057 4980 -3925 5609 7385 -9710 7596 4935 0
4980 1836 2296 8562 -9711 7276 -3749 7170 8824 9552 5535 360 2876 2945 8942 0
-6002 6930 -8052 5304 -5993 7626 -1009 1445 1677 4487 1878 -5886 8407 8013 -6849 0
333 -5174 6016 8879 -7395 7905 5180 5549 -9789 -2545 -6821 372 -7388 -8150 -2389 0
7413 -2102 2622 2440 6596 -4419 -9378 8705 788 -7507 -3083 3730 -4522 4608 -6249 0
-865 -6224 5918 -4765 5223 -4164 5553 2750 -3071 8826 8071 -3268 -1045 -1869 1862 0
-5850 -7958 6712 2853 -7373 3409 7280 6437 3533 -7196 5194 8193 8421 -3104 -4145 0
1047 -4121 8303 7353 7522 -7065 302 6803 -7168 7492 -5418 4702 7919 8569 -5091 0
-7693 -6689 863 5132 -997 -932 4911 -8438 4779 -4337 9761 8143 8930 3812 -9482 0
544 -4090 9998 5765 8361 3655 1409 3648 -6325 4295 1164 2967 529 4066 7257 0
7692 -6134 8309 -590 8665 -320 6503 -2755 825 1386 1846 -7701 6982 -7496 -9234 0
-2706 4423 6119 -8864 -6661 7349 5426 -768 9872 2619 -4020 -7761 5622 -2696 6544 0
4102 9773 3925 -4781 -2003 -3920 7042 2735 -1567 -6442 -757 -8608 3934 570 -7187 0
-699 1005 -3367 -5851 1880 -838 -7173 -2566 -4898 -8855 9736 7818 2511 7278 -6983 0
870 -537 -1801 4653 8001 -2164 -3127 8486 4638 -1701 -4841 5253 -6864 -545 -1124 0
2206 -7326 -1454 8953 8458 7443 6417 -9900 -1414 -4844 -4702 528 -3932 5986 -691 0
-3407 6922 -5502 5332 -7102 7082 5853 -5323 2757 2091 -8267 -4899 -8774 6825 -9220 0
3864 -1592 -1302 -6685 2975 -6973 -729 -2400 -5529 6117 2776 7653 3746 -6457 3255 0
6940 9991 4155 -3562 1189 -8809 3786 918 2512 4764 -9827 -8236 -1051 -1362 9284 0
-623 2474 -9478 -7013 -6981 1852 2212 3234 9946 -9191 -2688 -1327 -9869 1391 -914 0
-4289 7341 1737 -8567 -1171 -1252 -1798 -2232 -9748 -3963 8843 -9557 -2319 492 5412 0
-1379 5645 3749 -8461 -4803 -9585 -600 -2524 -5478 7896 1309 -7170 9694 -3364 -7958 0
-3446 -7078 -6401 9781 -4381 -6057 -8992 -4576 -1233 7742 -557 1670 4843 1007 -5753 0
-4067 8064 -8044 -1920 -5768 6987 6372 1855 4429 6216 -4121 -6470 -8174 -4468 5059 0
9437 1600 4625 7702 -627 2229 6168 -7076 -4561 -5952 8276 7533 -2976 8820 -6114 0
-1381 -6850 -2651 9380 8622 2798 6595 -3289 9395 7378 -1218 2754 -421 5715 -9277 0
5178 5313 -6733 -2466 5300 -1343 2384 3075 6795 -9570 -7814 5957 -803 9334 4743 0
5248 2972 -6465 9135 -5836 -5903 7182 -3202 8519 -5589 -5811 8776 -9823 9626 -1393 0
5512 6289 3757 5867 5132 -3989 -3034 -5145 -6168 -3724 6647 -6568 6249 -6445 3294 0
8045 7738 5492 7346 9588 -3718 -8444 8707 -1715 -5173 7047 3787 6182 2903 496 0
-5941 -2870 -2432 3791 8547 -8554 1860 -1898 -8398 -8752 -53 -6723 3513 -3321 1915 0
-7023 2371 9992 -2667 7377 -7249 8730 8130 2272 -699 -8698 -7168 2382 2672 7532 0
8898 -4816 -8160 2353 1483 -8760 8642 -5697 -226 3497 246 -7238 327 -1332 -5106 0
219 6846 2409 -5809 9430 -8221 1023 -9154 -7905 3313 -9481 -2703 -1612 -4290 280 0
-664 2396 9916 6005 2786 -9364 8030 -4637 2578 1918 -4529 -5813 -8477 -2244 92 0
7307 4889 -3225 -2907 -8438 -1262 7471 3230 8169 1284 -2447 -6180 7535 -2348 -8619 0
-1605 9584 7227 6569 -6642 -5604 9242 3098 -6178 3952 5256 -21 -1378 -473 -7827 0
-6777 331 6455 1496 -4316 -9644 2916 9930 3792 946 6786 -9122 -3789 -7866 3571 0
-7995 6476 1670 6235 -2886 6787 9212 3957 -2105 -2214 -2901 6247 -7401 -4321 9333 0
-4017 5289 9209 7799 -6533 2589 5467 7767 5840 4026 3482 -697 5642 2336 -7867 0
-7077 859 -2235 -9785 6209 -2454 5925 6478 4347 -6242 -553 5931 -7645 -9430 9936 0
-3068 4738 3501 -702 -686 -4586 -1497 -4567 593 -8105 -9878 -8653 8591 9590 4675 0
-4507 -1472 4108 3517 1979 6724 -511 4924 -1932 7153 8277 -7128 7892 5343 -9833 0
4110 -7087 638 -9794 507 -5767 8542 -3590 4217 5401 4287 -7462 -8787 242 5950 0
5888 -9914 3519 9842 -1345 8374 7701 -7756 3301 1426 6194 3089 976 6710 1002 0
6999 9508 -4671 410 -8558 1043 -2100 3639 -2980 -3690 -9691 4844 -5351 3652 -1170 0
-6306 242 834 -7125 7234 -3186 8606 6618 7772 7675 4221 9343 6248 9325 -9734 0
3391 2451 -4248 -2087 382 -9197 -5358 6098 -6926 -561 4627 2887 2461 -624 -3270 0
4781 -8485 -2168 5270 -4649 -778 1257 429 -8345 -669 3202 6743 4405 -1675 -1552 0
6730 2191 -113 -2184 6251 6291 9756 265 5578 -9790 -6744 2794 -3277 -8517 -4885 0
-7774 7328 1139 -8819 8302 580 -8769 275 -5570 -1286 -1531 9935 9049 -2941 3657 0
-6480 -2126 -7323 -1446 -4542 179 7270 3055 -6888 7981 -4606 -9265 5104 2742 -3906 0
-7518 -3702 4576 -7939 -1669 8015 -9252 9094 -8491 3269 -2292 -7718 7835 -9224 -1205 0
-4898 -376 -2959 725 2358 5158 -6231 -8332 -375 -2635 9542 -9570 3254 6781 -6022 0
9549 -1034 -4410 8255 1530 -2848 6600 6590 -3922 -8875 7835 2794 -133 -6425 -5646 0
-5394 3210 -7526 -3593 2795 -4147 4492 -8775 6818 -187 -8349 -1511 7197 -89 3166 0
5567 776 -8998 -9588 3051 9813 5356 -8764 -2255 -6012 -6242 6533 -7461 625 4129 0
-4596 7027 285 -5006 1657 551 -4320 7165 -5646 2929 -9656 8453 1195 -1015 1800 0
3573 5659 8044 6970 6385 -8536 -3638 -8823 -1741 -7194 -2435 -5780 -755 -8425 -6278 0
-3413 9426 -3114 3908 -1556 -3592 -6866 8936 -2825 -8722 7356 8139 -5259 -1212 -9605 0
4658 -3880 7300 -8455 8632 4466 3639 1890 1751 -8818 6734 4328 -2214 799 4380 0
-3290 9653 5219 -1571 -2412 -3418 -4341 -3164 -8161 -2990 -6523 -5748 -2815 -6360 -3753 0
-3048 -2091 7560 2951 4850 8916 95 4727 -5321 7758 2163 -9997 5316 -7706 4539 0
7070 1624 -3456 8844 5464 -8501 7421 -4918 6965 -5083 8208 1376 1423 -5752 -610 0
2534 -9271 4606 9604 7917 -9227 166 -1239 4424 -8882 9217 -4308 -7333 8699 -9878 0
-9523 -986 -7882 -8943 -2388 9092 5392 2063 -2979 -9382 9914 4109 -5921 5182 6198 0
-6291 2605 -4540 -5802 3364 1673 -7527 9130 -6924 -7896 -4343 7159 -2428 3382 -6247 0
-6336 -1030 6518 -621 8588 -8056 -3230 -8853 -321 -7412 -3261 1108 -4203 -3071 4533 0
-6525 2254 -8293 -5680 4317 -6009 9951 5335 7750 9452 9690 6226 8734 7559 8338 0
3693 2052 -9951 -9967 7418 9751 6194 432 2537 5270 3900 63 -9062 7394 -2997 0
7507 3644 -9916 -8000 -2884 -7369 -6825 8807 -7058 1968 3281 -437 2148 1867 -8976 0
7422 6258 -3460 -4702 4535 8610 -5009 3824 504 -2046 870 -1521 9995 3916 3290 0
-1762 -2581 8501 7413 -4524 -379 -761 667 1347 -4519 5147 -3690 -8488 9678 6781 0
686 -3874 -5884 -6025 -2697 -1464 802 -3000 -5554 8823 8152 3551 8969 5096 -411 0
6236 -1867 557 2659 7089 -8372 -664 -3369 -7592 5997 1736 5786 432 1565 -2213 0
1239 7921 8603 -3979 -8263 -4120 -7560 -4870 -9908 -6565 1433 -4345 6185 1419 8564 0
-5907 6798 9691 8462 -5460 4893 -7900 -4371 6460 7867 2875 6596 -4629 -9551 2007 0
5912 6919 6095 7712 -8477 -5746 37 -2201 -8569 3992 -1583 981 -7289 -1199 1263 0
-8764 -2443 -5276 -1841 -111 -8478 838 1203 2811 1514 2589 4420 -7948 -8046 1553 0
6891 -2282 -5048 -4634 5000 -748 -8630 -8522 -5937 5399 -3162 -1997 -4362 -4381 -7508 0
3271 421 3748 -6446 -5210 4219 4288 5042 5429 2985 3128 8682 -5186 6825 -7075 0
-5448 7965 -7611 794 -3281 -9265 -6344 1916 6456 -2011 6882 -1932 9385 2567 -6263 0
6420 -665 1274 -4754 288 5184 247 625 8560 -2324 -7905 -1688 -2652 7238 5695 0
164 8535 -3478 8463 -7434 7187 -4164 2751 5717 -7621 -7948 -5792 7126 -3374 818 0
4677 -3554 7421 6432 -9312 -4056 -7744 -363 1264 4204 3149 -4557 3135 -1705 -72 0
-7718 4095 7373 9407 -9314 -426 -4825 -7639 3927 3176 9616 -4033 7142 8291 8123 0
7188 -7954 1391 -9226 5902 -4782 5327 -512 7218 -7473 4750 -8742 3366 -1406 9272 0
-3588 8876 9252 -3534 4532 -724 7312 -6377 -7407 -5338 6944 -9574 4559 -7856 6679 0
-5976 -771 -3773 2365 -5285 309 -2219 2711 1101 -6852 734 8054 9663 2719 1316 0
8775 5724 7096 -5575 -3922 -2570 -2597 4851 -7044 -3686 6899 -9770 2190 -7492 -2585 0
5222 3595 -7971 -9948 6521 9326 -473 6264 3069 -5950 -7451 7984 7038 7648 -734 0
3935 -8077 4536 -5422 8565 2126 -8894 4443 9965 3129 2912 -9450 4943 8840 -7160 0
-6948 -7203 4214 -7589 4491 -8103 6046 -1043 -129 -6729 2161 4847 -5052 5158 -5898 0
-23 8187 -3814 -7568 8317 236 -5633 -3331 3381 3229 5229 -2049 -6959 5452 427 0
5557 5900 -9274 9622 -8646 -25 -7260 4474 3571 964 7665 -2307 -7257 -3412 3718 0
4816 -2453 -6456 9660 2513 6349 -5846 9348 6243 -6030 -133 2208 -7732 5574 -6652 0
-2863 2898 -1073 -8859 3370 -1264 -4789 -4539 3858 -6920 480 8898 -9231 -345 9104 0
-2845 -6689 -4792 -4364 4635 -6121 -2156 -3118 9467 8280 -6673 6226 1635 -3703 -5716 0
-969 410 -640 -1301 2192 7215 -3292 2777 -5660 -4093 -516 6427 5321 -89 6768 0
6541 -7850 -391 832 2154 -3340 -7260 3962 -6400 2706 -7169 7937 -5998 4180 -2500 0
4616 -8176 3713 839 7630 -5365 -6290 6345 -1484 -4180 3660 -3213 1440 -2827 1685 0
4222 -7770 3051 6249 -4713 -5008 -2140 4527 5708 -2862 1379 5729 7570 8154 -6893 0
8983 3293 -9989 7475 -4008 -726 8988 -7553 -3760 1837 5253 1443 7569 -7451 -9851 0
3951 -824 2651 -9378 995 -6199 8509 -7366 5064 6055 -2325 -3416 -8456 -7995 461 0
7907 -4955 -8223 -4250 382 -5771 8281 7871 -7075 8456 4277 8658 -8818 -8118 5205 0
-7939 967 -7427 -9458 -5077 -7706 -1473 -9681 2801 2799 9555 -4202 3089 -6496 -7582 0
-8774 -6 -6042 5156 8376 -1752 2653 1669 -4277 9683 9542 -8655 9035 686 6463 0
8395 2680 5211 6075 -7771 9066 4661 -5788 6301 -2755 5511 -7089 -8039 -3152 -7225 0
-6531 -3808 2824 -4747 -4909 1489 8518 -7475 5829 1987 9538 -5157 -6865 7606 -775 0
5280 3073 1237 -7349 2044 7944 -3650 -4004 -8143 5398 9059 7766 8171 -377 688 0
-6664 -9207 -3414 3121 1348 9127 -5356 5074 3735 593 -5071 -9337 4529 175 7217 0
-5116 -6509 -8433 8283 7992 -5469 -7481 7063 7551 8062 -8195 2557 7006 -9105 -4592 0
-8891 7973 -2359 3657 -4161 -8840 -3494 5841 -6241 8023 9000 -5800 3404 -1127 -1211 0
-8070 -3496 9966 -1671 1433 6150 -3977 3927 -6929 5642 8832 -3980 1178 -1732 4921 0
3430 -6166 1248 56 6996 -7890 -8849 8919 -8273 3350 -796 -7338 -2023 3678 9561 0
-4949 -6999 -6354 6570 4704 1542 6087 6093 -62 -4332 -2465 -7478 -9796 2322 4037 0
-8437 -3781 -8038 -7611 -3415 6547 -8918 -2192 3248 -6081 1150 -8001 8109 -8548 -7223 0
-4592 8109 1340 -5716 4721 -8083 5997 6319 -2616 8293 -3607 -2266 9543 9318 6043 0
-2805 9811 -8774 -1037 963 7402 7278 4429 7041 -6520 9013 5488 2956 -3265 -1994 0
-8682 8704 -9153 -5043 2362 6484 4365 6960 -8452 -8042 7909 -1068 -811 -3607 -5108 0
2783 3843 -4485 9897 -2125 9013 -294 -7850 -9786 -1446 -8610 -6658 2762 -9729 5027 0
-1250 3172 -2604 -2079 7871 -4002 -7008 256 -885 7310 7975 4563 -5692 -3060 2512 0
2606 -3024 9161 1741 -9943 -3515 -9722 -9091 2085 -1328 8928 3850 8787 4122 8357 0
-2804 7569 -4390 -7183 6732 3802 4205 8959 -694 6671 -6157 -3137 -7695 2544 7766 0
-8854 8364 -8331 -7412 662 6360 -122 8944 8975 -5475 -6701 3423 -4471 -5081 -571 0
-8590 -1577 9826 2462 9936 -8396 -9521 3740 -7920 1294 -9037 -6196 7236 -3603 -2990 0
-5609 -563 -1697 2227 2779 6471 3804 6276 4518 -2793 1046 -5819 6748 -1463 -9340 0
-4647 -1006 -3036 5680 4961 -6911 1430 -8945 -8062 -9725 -1041 -1197 -2954 2496 5742 0
-9155 1052 3470 4513 2143 -7112 -3273 5548 5243 -6893 -3809 2371 9838 -1277 9903 0
-5728 -9872 -6282 -5918 -2422 -4639 -3736 -4037 -6546 6538 3964 8209 -783 -5863 -5100 0
-8241 5574 2263 2244 8009 -7065 1397 3237 2566 7652 1116 -1944 -2527 -1548 2899 0
9856 -6489 -2654 3086 4953 -5063 4998 8182 -9854 4956 -7905 9440 9229 -4963 9294 0
3398 6712 -716 -7280 -571 -2267 5385 -7448 -8676 1611 -785 3102 9013 -2183 -1326 0
-9193 -6124 -7452 -6768 -7368 573 -5368 2052 -318 -9273 -3815 5382 411 -6968 2827 0
-1556 4364 -8858 4203 4503 363 -6942 -8415 -2515 1803 2580 -7005 4042 7806 6528 0
-2795 271 -3028 -7212 4537 -8199 5852 -9738 7504 -5861 1908 -1269 -8119 330 2282 0
-8258 -8739 3587 -150 -3043 -4745 6715 -7104 -3888 -3702 3848 3215 3335 305 -8101 0
1455 6498 406 7775 -8739 700 -4651 7081 -9933 1350 -2638 -5824 8891 -6646 -4253 0
-7269 -321 -5549 8369 -9332 -9524 4402 -1450 -3827 -3858 8666 5300 -6260 -7975 2789 0
-7011 9888 -8207 -7107 9393 6684 2505 -2568 -9242 4043 -490 84 -6740 5438 1266 0
1498 151 3204 -7234 -4010 -9855 4448 2065 -2376 -8316 -7718 6772 1591 -9133 -8694 0
-1941 3980 188 4354 -4464 486 610 -2903 -1214 8850 -8640 -2944 -8631 2764 -983 0
4160 -6172 6130 -9829 870 3930 -996 -9959 4298 8208 -6800 3602 -9460 -5324 -8570 0
3790 3797 -2434 9151 1019 -932 -7572 9295 1048 -5029 2982 8361 -9270 3425 -9950 0
-7735 1025 -7670 2132 -9415 6063 -6803 -3636 -8383 -4993 -7053 8585 1225 5234 -1711 0
-8428 6511 9907 -5729 1333 8989 877 -2708 8610 6343 1093 -1907 8213 -7142 438 0
9791 -1842 -3491 -9397 928 2541 -5015 -3884 -5024 -3729 -8413 4338 6011 -6123 123 0
4173 1831 7873 -9744 6914 718 -2956 1622 -6427 -3091 -9142 -1178 7804 -5324 -195 0
-1287 8584 -8053 -1997 -4369 7552 -4194 -2155 3387 -9002 -7831 -7894 123 2992 1254 0
5215 -6869 -9 8429 2936 4634 -2657 -8733 -3269 -8856 -1078 -1032 -8282 -1295 4349 0
-5473 -8685 5060 7300 -190 5441 8606 -655 -3422 9501 4345 -6573 5000 -1289 6947 0
1511 -2918 -9199 7288 2802 -3695 6765 -9467 3279 -7324 7667 9813 34 -8556 263 0
972 6369 -7716 8156 6989 -8037 1969 -5278 1833 -8922 -9777 -4568 -4017 8245 6218 0
-6105 -1599 -7875 -1721 2040 5843 -9258 1232 -9064 -2520 7367 567 -5400 8084 -5046 0
9626 6163 8952 -6533 -2803 -5048 5059 -7762 9935 -2871 -1072 -2496 2214 -6943 6251 0
4927 1876 -9235 8288 -5148 1841 -9483 8242 4832 -7715 -7567 6200 9053 664 -622 0
942 8819 2225 9975 4598 4396 596 4507 758 -2067 3301 4796 -705 -8629 1044 0
388 -8086 -1663 -3385 -7438 8690 -4238 -4386 -2023 8962 7202 -549 4578 7578 4401 0
448 -7558 -824 -9303 -1811 3994 -8034 3045 8604 7692 5592 -5204 -7998 5322 2442 0
2225 4162 -4673 5131 2936 -6760 -8418 -4173 6526 -3783 -9798 -94 -3255 6743 5987 0
-7274 8037 -4632 3370 -203 5043 -4668 851 -6462 2142 -4839 -2224 -3707 9988 6319 0
-4718 9051 9921 5997 -8407 2031 7492 -6972 -1891 -6488 -8531 -7963 8998 -5097 5681 0
8960 4450 -5444 -4810 1734 3044 6788 7004 6186 -4784 4649 -2992 7090 -3183 -4918 0
-803 4515 3923 8034 7686 3968 -7417 8176 8229 5230 -5282 -8099 -3724 4373 4292 0
7513 -7341 6822 6951 1491 2475 -6145 3011 7689 4903 -6346 -9060 -7949 4078 -7498 0
7940 -422 8611 5436 -6963 2891 6215 8031 4977 -8907 -5682 5708 -9637 1291 -8423 0
257 -8850 -1983 8563 -9963 4079 8005 8993 -8845 -4279 -4630 -4014 8177 1623 -9852 0
5182 3378 9959 4161 5371 -7155 8505 -4875 -8194 -8116 -7299 2402 -3215 -1208 -9041 0
9761 9937 -5111 8823 -5143 550 8261 -8402 1395 2098 -5729 -8953 6463 3793 -9996 0
-282 8460 7798 -2703 5431 9869 -8739 -5413 9958 8180 7213 8986 3037 3721 -7335 0
6430 4531 1088 -8294 -5239 5248 1419 -6235 -138 9425 -8955 3607 6954 -6986 -48 0
330 -2856 -1527 3244 -6734 240 -7821 -5959 -8896 3845 -7461 9578 -8424 98 7340 0
1909 7094 -9479 -9968 9899 5856 -7846 -9746 4977 3855 2172 325 -1089 7805 3413 0
-9619 -3125 -286 5390 -515 878 -2113 -4780 -5944 -2086 7418 972 -855 913 -2082 0
-1927 9416 -9234 3516 -1505 -8129 7652 -9567 -7343 1169 2771 -7382 -9231 -9202 6104 0
5679 -4958 9116 1970 -4308 5909 -5377 8916 634 5055 2785 6918 -8982 -7753 -7477 0
-4559 -9984 -84 -9213 -9392 7 779 -1906 1276 -9721 -8365 829 9488 -4831 482 0
-8632 9909 -4995 48 4398 214 18 -2860 -4839 -2676 -1776 -277 -7557 -4716 1588 0
-8579 2838 7742 -909 -1821 -5636 7072 -3033 -6527 -243 -2760 421 -4697 -5129 9509 0
-1457 -809 4524 9967 3534 -9488 3347 4233 -6339 -5154 -4131 -225 4857 -8581 7442 0
1014 -777 941 2602 2943 -5077 -2792 4872 -7121 1511 4276 -7520 8192 862 8372 0
-3148 -5782 6820 -5789 519 4054 -3987 -5277 -7508 319 435 -8540 6424 -6372 8068 0
-7127 -1613 1116 -1841 -9523 3999 8305 1565 2177 -9756 -8262 3964 -2649 2238 -4975 0
-8243 3816 8417 9768 1885 3016 -2731 -2231 -8280 -1669 -856 -3109 -6369 6709 1254 0
9348 -7365 -7609 -9049 -8067 9104 -6513 -2314 -4312 -1302 -993 7749 3288 982 -8014 0
3848 4580 5245 5525 -2185 -7750 628 2436 -5541 -1832 7090 -1858 9892 -645 -2800 0
9523 -9634 -3058 -2889 -5319 1915 -6256 1587 -5232 2507 3878 -8767 1931 2856 -2035 0
-8071 -9847 -5238 -798 1047 -639 9330 -928 3960 -9659 7026 -9731 -5048 -5767 6470 0
-1827 -1250 412 -6030 -2192 1721 6519 1964 -3871 3424 1663 6851 437 9620 -330 0
333 -46 -1696 8678 -6707 2567 3233 1757 920 -8181 6712 -174 -6189 -7812 -339 0
4275 -6271 -6607 -4181 -4611 -7983 -4201 -900 3615 -7751 9765 -9235 5954 8830 -9295 0
-2252 -7208 7479 -4132 8958 3971 7721 -1586 -9868 -1259 -3486 -8212 697 1351 -9261 0
-2244 -1208 -5488 -8059 -3924 -4922 241 -7489 2668 -253 -7859 8546 6501 -2520 -5731 0
9877 -5827 6991 1931 7182 -9562 -6807 2700 -4544 -7527 3036 914 -8842 -3132 -3081 0
5810 -4358 -7992 9120 -751 9101 -2478 7446 9768 1615 3438 -6477 4973 -8152 -803 0
-5436 8235 921 3504 971 2317 3645 4906 -3254 5960 2700 3980 -325 5729 -8890 0
-5298 -2262 6799 -9933 2902 -8624 -7710 -2064 870 -2464 -3246 4784 2475 2746 -4719 0
6864 -3642 304 -1390 2981 8750 9300 3066 8976 -2384 -8527 -3325 -7494 9186 9578 0
4908 -4534 7412 -5395 3194 -1665 -1323 9102 7280 1190 -7239 -3645 2674 -8694 8076 0
-4450 9367 -3779 -8513 -4106 -8888 -8812 9028 4930 -8594 1992 -302 -1454 9112 -420 0
-540 -6774 6574 -2802 3829 4572 9065 -4510 -9580 -7210 -8906 8538 2559 -5344 -5317 0
-7340 8336 9061 3546 -5172 4493 -3920 -1577 -6911 -7761 -2874 -3284 -1094 -7605 6361 0
7127 40 876 -7550 -7123 5521 -2245 3657 5837 -65 -3591 5320 -4781 -8643 -3453 0
3311 -6697 -2955 -3 -745 1930 -4598 7952 -5094 7829 9570 -3668 275 4442 3683 0
5021 -7289 -1763 2801 460 2062 -422 -5015 -2022 -4627 -5314 -6240 8547 -5291 8568 0
3274 1161 6345 8609 -5256 5129 -6180 -8131 9410 1014 1821 -1881 1321 3099 856 0
-7854 7279 1411 -1353 1519 -8345 -6762 7112 -4619 8325 -1893 3327 -6546 -6442 -765 0
6208 -9483 -7890 371 7945 -2282 1745 4836 -4252 -7003 -6428 -241 8455 -3036 3176 0
1673 3159 -1148 -7719 -9179 -284 1406 -8805 563 9846 -8040 7851 6993 -1670 -8821 0
-5295 483 1008 7469 6520 2245 3130 -1588 -5050 -105 4746 8571 -192 -3880 3638 0
-1066 -2916 3131 -3175 7952 -7267 -1995 2617 -4215 819 -3137 2736 5791 -9052 9846 0
-2719 7581 -7696 7726 -3604 5443 -7788 -6980 47 -6419 3529 1910 3697 -8087 7560 0
31 -1203 -3060 7971 6395 8919 6529 -1933 1033 6541 8271 -6662 -1536 1141 -9851 0
-1985 4652 9501 -3594 7127 7238 7012 4623 -554 6310 -7139 -2456 -4849 -8355 -294 0
-9171 -332 2393 912 -7431 -4942 -8271 -6948 -95 1834 5435 -3788 -8490 -5984 6946 0
-9274 -9565 1881 6470 -9302 -8994 -8610 5964 -3698 -3481 8299 122 -1520 -7347 6621 0
4433 3727 1194 180 1620 -3769 -2372 5606 -4463 4540 -1910 -5743 3447 9810 2760 0
-6999 -4182 7335 3486 -3582 8676 3075 -4751 5271 -4279 9376 9604 3999 7754 1552 0
4828 4747 -5862 8714 -1029 3323 -3932 7593 -379 -2585 -8933 7289 2964 8669 4425 0
-1458 6649 1483 397 9861 6046 -1440 4109 -4328 8648 4461 737 6462 9902 8718 0
-1340 -535 -4555 6693 7560 3647 1324 -8189 -7980 -4592 8597 -1827 -9639 6555 -6814 0
-233 -9945 154 -7126 -4229 -552 8741 -5680 -142 -496 -1368 -7791 819 2087 8683 0
5755 -6340 3809 4872 432 -782 3469 2893 1236 2991 -3065 2956 -5374 7226 3859 0
5050 6394 1497 6262 -5528 -7018 -1536 951 2064 3944 9513 9670 -5069 8822 4362 0
9449 8779 4123 1466 -2606 -4349 7707 6640 -6801 -3875 -5113 8180 -1941 -7281 8966 0
5565 8500 1359 -4071 -5812 2623 7105 3394 60 -4323 2085 8146 -2466 -2663 7432 0
4144 2840 -2498 -4954 -2201 3002 2580 4343 -8751 -7761 4930 7918 -7159 -3591 8587 0
-6368 -9486 -451 -3596 2294 -4256 4058 -7445 -593 -6493 -3686 -8271 5957 -2285 -5062 0
-1445 -5768 -6360 7936 2184 7103 3347 3833 5247 -6098 9112 1239 3806 -9218 -1897 0
-2644 -9854 9948 3866 -1063 5843 -2818 -6587 -4893 -4819 -6873 -1219 -1737 -2089 -7868 0
-6950 -9681 7070 -2777 -8450 -2084 498 16 9327 -8868 5664 -8340 -433 1423 -2929 0
1206 -3998 4379 3595 -7537 -6731 -8279 5347 4456 -1308 790 -1621 -2453 -947 -1782 0
7429 6897 525 -1021 -3655 3362 -8344 -5176 3967 3503 -7432 234 -3474 -8642 -4111 0
-5209 5785 2604 -1354 -2320 -4007 -9985 8740 389 -1472 -3782 -7613 8184 -4433 -2114 0
-8569 8317 7785 -7330 7529 8088 9422 5001 -6677 -2155 -1005 -2273 -1418 4491 7120 0
6102 -3276 -3744 -1587 7259 -4624 -7482 -7311 -6989 6258 -3951 -7096 -759 6630 -2402 0
8952 -8268 330 9390 2059 4672 -4512 4569 -9704 1598 -9623 -8366 5302 8349 -2647 0
-2178 -2025 9640 9769 -6278 -8065 -5987 -4873 8067 6306 3927 -7924 5863 -5611 7547 0
6260 4975 -4808 8138 6082 -2524 1691 -8949 -1485 210 -3833 -1077 5104 -6202 -5469 0
3796 -9713 -5221 1227 -8004 -9052 -4046 9582 -2386 -8266 5522 4600 -1088 -2274 6380 0
183 3661 -5786 6846 173 191 1103 1738 2079 4595 150 -3407 -9759 -714 -560 0
-4200 9560 -2534 -9734 -6736 -6430 576 -6482 -7368 -4906 5097 -997 -7566 1656 -1367 0
8947 5002 -7147 -1361 -9355 -3608 -8230 6111 2371 -9783 -8836 -8928 -754 9631 8717 0
-2049 -3387 -3123 4097 -7903 -7738 -8970 -6753 3185 19 -2982 8680 1240 -8770 7807 0
7673 432 1081 1543 -1942 7467 -1140 5419 -3122 4140 -7890 -1099 -89 4434 -9902 0
-8483 -8979 9593 -1626 5606 -2577 -3171 -4288 -815 6771 5129 6174 -3707 9425 -3912 0
8547 -3008 1180 -2335 8227 -8435 9533 -144 9136 -2907 -5642 -5649 9648 -3552 9579 0
-5719 -5308 -6296 -7648 4874 -3239 6802 -1855 3398 328 64 -6672 4944 -6831 5128 0
5981 -83 -5760 -2480 -9540 -4254 2988 2953 -8277 -2810 2864 -5896 -4658 -6082 3156 0
2044 -8284 4041 282 4185 5182 8114 -254 7787 857 -3147 -1905 1601 8913 -8063 0
7126 -1541 -7258 2029 3897 -3764 -3893 -3721 9718 -5720 -3997 7527 -1052 4210 -4394 0
7078 -7192 -9259 -3070 -7792 7955 -8506 1096 1111 3935 3701 878 7749 -8360 4848 0
-1557 -1772 -6615 1454 3646 513 -2329 -4500 8533 -4761 -91 -7076 -3889 -6523 5080 0
-5087 3854 -5727 -6278 8120 -8718 7790 7286 1236 -4018 -3182 7975 -5375 4343 7375 0
7355 6843 9553 -6470 -2384 -7175 -1344 -916 7526 8009 -2006 -6356 -9742 6024 6756 0
1298 -2710 6289 -969 6786 4550 -9265 2298 -1629 5682 4252 -1573 7574 32 -1341 0
-7553 4828 -9200 726 -4187 -8740 2984 -4413 -5203 2876 7531 6530 -4453 3791 3633 0
8830 7561 450 1884 5931 9705 -2960 536 6993 -4409 944 -9710 5544 -9309 -8837 0
-2915 6978 6132 -3019 -5637 5001 9110 8998 9863 3915 5122 7833 9102 2919 -8115 0
-757 -8702 4175 4297 4869 5242 4611 2388 9317 -1567 -5061 -4645 -7226 7744 -2255 0
1518 -9613 9445 -3667 -3395 4156 2064 -4591 4337 -8164 -7293 4823 4841 -9367 5200 0
-3555 -5856 -9763 -5694 9771 2848 9704 6064 8098 -5370 8622 -6393 -3763 5298 4638 0
4585 4823 7125 9496 3060 9105 6256 3476 -8354 6084 9137 8041 224 882 623 0
6055 -9136 7689 5403 -6276 -4661 -1344 3140 -2500 7696 -9302 8138 1564 919 9246 0
6741 -1716 -6120 1377 2540 485 6861 6809 -1167 7800 -3482 1279 -9860 1666 9243 0
-6957 -7880 -3025 -9312 1782 1516 -7467 5989 -1570 9391 8527 -6447 -5535 -9079 -8089 0
4559 9401 -8528 -3740 1674 -820 -6236 5112 -1055 -4821 9762 -8668 2450 -311 2111 0
-8399 6150 9730 8327 -9089 5559 5046 2417 4912 2273 7112 -7633 -7904 2762 -2327 0
-6904 929 -4212 -3713 -8047 -8026 -2416 5832 -450 8178 -2415 -9717 -4308 2702 7392 0
-9892 -1225 -71 9387 812 -8635 -1939 -652 6941 -8323 -6889 -3657 -6680 8621 344 0
-1614 -7797 -8451 749 -6803 4707 -5974 -2527 -9638 -9078 1603 -451 -7772 -1690 -6835 0
5928 -2893 1059 7600 -7005 3173 111 -4905 -3305 3695 -2219 -2575 645 8930 5397 0
-7897 -5382 -2276 8832 789 715 -3420 -4600 -5556 -9559 3022 -3643 -805 -9139 -4089 0
8105 -4876 5653 7033 -1392 251 -3867 -8215 7229 9661 5190 7668 -3476 -3905 4090 0
-7651 2156 -3875 -8563 6608 1355 6962 1154 1301 9087 782 70 529 -8023 -7933 0
7750 2922 386 -1940 -3257 -266 7196 3306 -4031 -9711 749 4528 -8378 2069 -8400 0
5523 -8793 -2067 7979 -3678 4855 -7206 -2374 -8200 297 6492 -7002 -1361 -2625 6966 0
-6204 3243 -5085 3545 6018 -3590 9012 2902 1249 1589 -9808 -2001 5460 2614 4369 0
9751 -7668 -5136 9019 -2919 3966 7352 6254 -8541 -1762 -4727 186 -9189 7362 -6781 0
-4980 -9317 1656 -4621 6860 -9506 -1266 3264 8856 -3350 1890 -4249 -1450 -4145 3884 0
3926 8401 -6967 -7447 -9784 -2879 9957 -3312 -574 5805 1622 1976 29 -970 -2851 0
5486 -1026 -4736 -1940 -6135 9264 -9548 1632 -797 -4644 -8614 9306 7812 -5800 8665 0
9395 5074 548 -7181 485 3036 -3241 -6312 9030 -4836 6749 8615 -8056 6332 -8219 0
-9023 -6343 4676 1381 -1176 9765 -374 354 -7848 -9772 -5399 5457 4494 7614 3134 0
664 4841 7183 -5246 -4617 7926 3947 1087 -7683 -7782 9953 4132 9751 4604 -7291 0
1961 1184 4648 -526 -9345 -2488 7495 3281 -546 -983 -7250 9755 6224 2772 2211 0
-5989 4622 -1124 -9924 3019 -1946 1966 3727 -9880 5228 -4717 -2382 4005 -2256 -3403 0
-9911 6443 -529 -7882 -7688 3488 -9774 -1766 -7031 3998 5295 -9861 -3526 4702 2380 0
8478 1544 3194 5598 7389 2513 -3112 42 5540 -3274 -960 2267 -7617 4098 307 0
3478 -7182 -2781 -2093 1153 6799 1555 3807 7353 -6159 9668 7437 1741 -72 4875 0
2802 -6789 -2197 8370 9574 -2597 -7351 6059 5764 -4105 -125 7954 -623 2087 7815 0
-9125 -3378 -8224 -7138 9833 -3742 1857 5729 9058 2990 -8579 3298 4578 286 -8612 0
-764 9644 -782 2719 6846 -9643 -7508 8818 7824 1733 8065 -8787 6733 -6987 -6883 0
-9758 1197 -8956 -6504 5307 -5629 -437 6109 9984 -2002 -4137 8464 7568 5194 -9703 0
1715 -83 1991 9809 -6708 -1283 -3209 4070 6484 -155 -3009 2786 6285 9739 -3414 0
2368 4712 -3901 2577 -9108 1654 9124 3647 -9875 3887 921 9732 5285 -7688 3220 0
-1289 -8498 -1670 9575 -6664 -988 -6051 -369 -544 -6081 9516 -4303 4313 7599 -4498 0
-2527 -5509 753 3405 6683 -2028 -864 8084 -4957 3643 3437 6478 8361 -3012 -5285 0
4592 2263 346 1546 -3237 -2218 -8089 5748 5275 2830 15 1639 8557 9494 -8013 0
6351 6150 4841 -4261 4130 -5213 -4688 -2615 -2863 -4499 5018 4113 -3169 -3386 -3301 0
-1277 5763 -1197 9241 -5719 7719 -5190 6832 -6797 -9817 -6212 -8716 618 -521 2714 0
-8337 -8464 6322 8217 -3056 5569 4845 1406 9287 -5374 -363 8866 -1851 -7136 -8273 0
-5761 -4520 -1836 5517 -3233 -9166 327 9022 -924 -5193 -2924 10 420 -2759 -7275 0
-5138 4405 3581 -6077 8989 8736 -1909 4099 -8981 -9372 7257 -391 1578 1296 4148 0
4724 8217 -6820 2834 -170 574 2538 7244 -2210 4902 -9102 -4469 -5695 1903 -230 0
-5112 -9186 -4257 -3533 3510 -7027 5928 -8903 6272 -7681 -2366 9230 1173 -8933 2907 0
-9385 5175 -5194 -1111 -634 1671 9932 4923 -1843 -2933 -8529 818 -7067 -9505 -2156 0
7049 8089 -7748 3656 -5537 6128 -1136 -5758 4531 2093 4483 3001 -938 -4771 -7302 0
-573 7218 -6613 -3846 -8431 -7579 4621 -8501 -5670 -4632 535 6631 174 -2256 839 0
-9286 2811 -9377 1608 2041 3555 6941 -5094 1771 -796 7108 9795 8157 4470 1562 0
598 1486 -3850 -4776 21 935 -1504 -1005 6538 -4938 706 -3257 -4973 3604 5984 0
-3548 -6774 9820 6111 -8387 8836 -9174 -842 -8929 -4996 -6029 -1357 -6307 -2312 -9169 0
1907 1948 -4104 -1451 -3971 -3141 -1991 -6021 1388 9853 6340 9473 709 -8868 4321 0
3961 -6733 -3051 1947 2760 854 1818 -8521 4002 9095 7458 -5935 -8491 231 -6139 0
-9195 2699 8342 -4460 6699 -2306 3337 1834 -705 -1677 -2052 -8066 -3688 1903 7893 0
-5640 -4525 -3698 -6831 7826 -7045 7850 9718 4240 4824 -5082 -1947 6037 -4288 -3704 0
7484 -8322 -886 -2928 1259 4266 -2505 -883 7063 3245 6526 -6215 7926 7534 -764 0
6416 783 -903 -7338 -1549 -4487 -7595 2657 -9268 -8691 4734 -8809 -1379 7106 3024 0
8857 -3878 -8067 -3357 -4486 6653 -3682 -3633 -5730 -7382 9429 3767 8435 -4723 -5394 0
-5166 -3210 4425 9077 -4429 -7478 -2804 -9389 -6053 3685 -3607 9958 969 9917 6366 0
-9682 -9142 2825 -8614 -1444 9657 -748 -3578 -4688 -3286 2309 -4050 6173 -1330 -9987 0
-8884 -4410 5570 -4232 -6019 -534 9537 1189 9393 9416 9552 3135 -8162 -6283 1334 0
-868 269 -2709 3811 6967 2997 6651 -6918 -3619 -4866 -8210 3582 -7053 6381 4895 0
3176 8795 6987 6196 2278 -4554 -265 -2788 8752 4612 -3221 -7974 -3726 5686 -8285 0
-6717 6727 2205 5266 4016 -2918 -7047 660 -5452 -8925 -9035 2372 5782 -9695 7257 0
-1007 -5846 -8975 7894 -7556 -4140 5581 -4307 -6320 -4884 -6731 -8143 5976 8873 -1534 0
933 8594 5421 595 -5151 -6749 4242 9394 -4357 8835 9218 6576 1361 3413 9898 0
-7412 -9943 -8315 -5053 -3637 6808 -9684 -7903 2653 9856 49 8797 -2454 -9526 -7528 0
1563 4817 -5487 -911 -145 -9157 -1599 -3156 256 -2355 -8988 -9733 -6084 -7247 6508 0
-3592 9772 -1773 -1236 -1964 1896 2894 -9858 2184 3415 8141 -8747 4485 5924 -1600 0
3619 8757 -8510 -6902 -6017 -8694 7254 854 8761 4203 7810 -728 -6712 -9022 -113 0
6620 -1689 -772 4454 146 8561 -8306 4704 -6135 -6733 -3429 -1031 7288 580 6644 0
-8245 -2462 -68 9618 -304 -2322 -618 5895 -7862 -9672 -9589 7308 1994 -4042 -8964 0
80 6025 6662 9045 1277 -3662 -5426 4550 8080 5918 5805 1308 -5163 1241 7363 0
-7854 -4606 9205 -1452 1206 -1062 -4206 4732 1693 2332 8304 -8731 9531 -1193 -8702 0
-3037 -7755 582 -5051 -7642 -1773 2329 9716 -3774 -9376 7847 -9837 -4126 -7644 -8683 0
-3717 3775 5033 2876 3905 723 6206 6520 4138 174 -1364 7144 6813 -1361 3353 0
-938 7768 -1372 -313 -6624 -9038 6378 6644 -8709 -779 -5239 -7435 9601 8050 -620 0
-7233 -6512 3152 -3216 -9034 565 55 -4659 -7877 -5212 -2995 5893 398 -322 -9424 0
4785 2240 -5002 1910 3274 -5683 -1375 1049 -7143 6774 -1856 4889 -9931 -5716 3852 0
-8196 -4525 -9579 6036 6279 6988 -6979 -8123 5193 -8459 -2330 -7133 1919 2689 -5015 0
5589 -1754 -409 -3610 -4333 5088 -7644 -1415 -6156 -734 1517 6733 9982 -9485 -2215 0
-5041 -1526 2378 2933 901 8226 -7230 -3052 -3558 8131 -6882 7550 -4806 -6892 -5932 0
5971 7546 8389 -1641 9139 -2077 -2394 -4518 920 1454 -851 -8228 603 5694 6011 0
9720 2103 135 7185 91 -4375 5792 1330 9212 -108 -2144 4383 6105 -144 -483 0
768 9408 2971 9883 9983 7932 -954 6336 -1595 2420 -7061 -7055 4153 928 -148 0
-1549 -5168 -5934 -2573 2428 -3738 7005 7829 3158 7236 -154 -2009 183 9629 -1961 0
9569 -373 1326 212 -2574 2805 -7391 3393 5806 -3959 9144 8820 -4144 739 8962 0
1407 -9154 -1192 6218 -149 8630 -6805 4942 569 5891 6490 6002 -3638 -4079 5860 0
-2711 -7043 -6633 3340 -2782 -4166 7758 8923 1597 7321 7032 977 -1089 -836 -4136 0
-6447 7572 811 7316 -2891 4571 4910 -7952 5772 -6238 -8336 172 7059 9606 -7641 0
-7290 1760 -959 -9602 4074 9194 -7109 -8732 7212 5455 -6085 5844 -6099 -4672 -7024 0
4400 -2092 6116 -5901 -961 -1319 9996 -1564 3968 1407 -2107 -6280 5586 -786 3588 0
2783 6342 2578 -9312 -9382 7850 -5760 5014 720 -1932 -9825 5870 1495 -9176 -5568 0
-9764 -9851 -3105 -8114 -9343 9532 -3677 8508 -1711 5728 -7222 -3336 -44 -4465 1382 0
-5569 1643 6246 -6366 3219 7205 8481 6189 9274 7614 -7150 6323 8812 5892 7163 0
-1489 707 2010 -44 -4240 5839 -8261 2204 6926 6567 -946 -8213 7401 6864 9028 0
-7891 1399 4673 -8148 4335 -5984 2501 -1521 -6590 1980 -9810 -6451 9287 -607 -3321 0
9187 2175 907 7281 -5943 7169 -5363 3404 -935 8658 -4452 -4814 -6204 -7664 -57 0
9849 6114 381 -5731 -3348 6429 7839 -3473 9557 7604 -7294 -76 -3770 -6476 9007 0
8249 -8105 -4147 6424 -8564 725 8884 8485 -5647 2329 -4207 4548 6813 9981 -7571 0
-5083 -5986 9820 1151 2142 2029 -2108 9926 9275 -6592 -1210 -8577 -9929 7341 1202 0
3342 -4047 9278 7733 -7783 1467 8080 4655 4794 2951 -9221 3780 3301 -4894 -8366 0
-3866 -2123 -465 -3502 -3377 2890 6110 -6495 -9089 -5183 -3944 -2192 3730 -6711 4652 0
-823 -3804 5729 -73 -6670 908 -8266 -4814 4204 -3977 -2961 -286 1560 -9342 -6451 0
-1556 6476 5046 399 -5102 -4423 907 2005 5488 8949 1845 -8993 3193 2135 -4648 0
-5056 2174 -6095 -8131 5067 9312 2996 2929 2228 9823 6117 -1349 -6464 -6077 -9890 0
-5172 3253 -9898 9799 -7352 -8459 8385 -9060 -8159 -4855 8401 -9051 -1256 -1789 2811 0
-902 -4481 6523 -4506 -2698 -1087 2778 3702 -4827 8955 -8372 6019 -2070 2060 7395 0
1196 -5188 -8359 -4041 5450 471 -6671 5983 5653 6680 -7178 1417 -1619 -6601 8201 0
7487 3870 -4393 -784 -1054 -3925 2348 -6815 -5548 -4602 3447 -592 -4613 -8622 1833 0
7483 -5695 5002 5570 4809 2084 7232 3047 -6144 3372 9765 7628 1267 -8414 7583 0
2164 -5896 7406 -4483 8501 -3430 -9884 3140 -4555 -2490 5604 6584 7133 -7751 2596 0
6481 9547 3543 485 -3660 8935 7497 -1142 -1813 295 1815 1602 -2456 5741 2406 0
3913 -1453 6707 -9799 -7460 -6391 -4096 -3392 7154 7097 -9561 4401 2064 -596 -4479 0
9562 4686 3974 -8881 -6154 1782 -9043 1040 7159 1588 -9855 -4100 6260 -6044 -5131 0
-4070 -7211 1161 4305 8695 -8459 -1967 3699 -8497 -5495 -1661 933 4252 8321 8234 0
3883 -9529 -6814 -477 5593 -1533 38 1436 9964 1983 -2318 5765 -4740 9471 7063 0
-9283 -8883 4312 -3604 -6330 -6855 -2009 -331 -9995 -754 3545 -9231 9680 -2301 -2688 0
-9599 9640 2469 -3888 7885 -4659 -1307 -4024 -1716 6531 -4805 682 6435 4614 3177 0
3267 661 -2587 -3071 3886 5487 8904 3078 2894 -9261 -7040 5083 668 7141 7199 0
5307 -4644 6391 3264 3224 5326 -222 7269 7576 1834 2744 -9877 -6823 2787 -4610 0
6926 -1837 -8850 8588 -8912 3151 3665 8947 5465 9932 1938 2677 4735 -8542 -8198 0
3903 -4503 -9156 2396 1601 -1383 5989 8902 -9387 -7695 5631 -2153 -7113 -3817 -4345 0
-2576 -7472 6301 -3719 7608 -7660 -286 -9327 -2525 -5424 9012 -3542 -3688 -1707 -6295 0
2290 4339 5765 -9694 4335 1070 -7043 -4584 -7743 5646 -5568 4922 8223 8889 2513 0
1794 -8352 -3383 2162 1735 4258 9278 1370 -6631 1818 -6520 -7922 -9329 539 -7075 0
2548 -511 -4381 960 6762 919 6311 -2130 3367 -3385 -4198 3424 -9961 6904 8561 0
1231 -9755 743 -884 -2754 -8627 3849 -3080 -8923 3013 -1107 -5170 -4962 9173 -7530 0
-6804 -3907 -4248 9407 -6710 7137 4102 8770 5604 8433 327 2494 -3452 7318 1201 0
-1072 571 -5474 745 -9342 -3215 5693 -1880 5545 6552 -1416 -777 2113 8000 -9742 0
2172 7525 -7159 -4850 6316 -6563 -2563 -731 -3205 -3917 8105 -4311 1788 -4594 -6209 0
7292 6318 5740 -6979 5512 2439 -6841 -7808 5418 -1041 -676 -3366 -8742 1 6203 0
5602 9811 -7425 5022 8278 7450 -2846 484 5169 1291 -3327 5795 9601 -546 -8795 0
-2887 -2275 5516 7190 -6980 -2388 5815 -2720 -8354 5069 6411 -2709 4269 436 2914 0
-5558 -412 -1477 -1063 8662 -9665 2182 -717 -1614 -7736 -629 6807 9800 -7871 4313 0
9349 -4242 -5944 -8848 2883 2188 4810 -9242 -2102 4394 9793 -9434 -5565 3232 3003 0
-1242 965 -8812 -9055 7289 -9892 -8558 -8247 6828 4498 -2716 -8636 6700 -3381 -2003 0
8539 2212 -6459 7542 -7921 -2390 -1124 -3020 -4432 9162 -2243 -666 -348 -2019 336 0
-1450 5963 -2649 -7302 -6924 -9300 2834 -9708 6491 8030 -8061 599 864 1023 8412 0
-7616 -9911 -1457 -7865 -9291 1957 -2075 2758 8200 9205 1080 6776 -1504 2054 -1594 0
7521 -9415 -8173 -534 -7105 -3523 -8616 -99 5675 5333 -1988 -6530 4077 4550 2174 0
3038 -1569 -5362 -8245 7431 -1817 1103 7649 6704 1465 3246 -4505 -1599 8273 6367 0
696 -3991 -2194 3058 -9459 -9881 3753 2951 -1908 -3401 -6925 -9342 3257 -5557 6825 0
7830 -3273 -918 2217 -8633 -1027 -1325 -7145 -9935 6700 -5574 -1860 -4523 -7199 6848 0
-3387 -5640 523 -4390 -2356 28 -6862 -9680 3204 1044 -1139 -7650 9666 -4395 6712 0
-3047 -6388 -7251 -4183 -669 5303 -3024 6477 6200 -5534 -5992 4816 -3798 7626 4245 0
-5049 2991 -9775 2426 9310 5895 8097 6852 -9483 5782 -7701 -6757 2140 2060 -5608 0
125 -1926 -7555 -9654 1272 7633 -5896 -9840 -8915 6460 -6618 1480 -9673 -1812 4582 0
7893 -5932 -6909 -3094 8845 -7690 -5267 3143 7698 -3747 -7132 -5258 5672 -1401 3853 0
1114 -89 -3402 -9056 6586 -5470 4033 -8715 9500 -5960 1709 -6701 7761 15 -6971 0
-8672 -7740 -9060 -6992 -9740 7110 -4622 -1695 -3489 2652 6190 -5616 6120 -3547 904 0
-184 5400 -5646 -565 -689 743 9850 130 2360 6404 4065 2596 1686 1950 -564 0
-5277 -6409 -2612 -271 6919 -7128 -8432 -4600 -9401 -3684 -4840 4893 -7313 -1911 -8612 0
4839 1366 -2614 -4438 4931 -1394 243 787 5653 9618 -6936 224 9447 -8174 398 0
-8640 7085 9087 -7478 7273 8494 9742 -4232 -2647 8428 -9430 -5160 3585 -614 227 0
9495 -3110 1447 756 -4909 1 7354 -9236 2040 7072 4479 9258 2710 9961 -4374 0
-7367 8894 -4284 7365 -5810 894 -2425 1964 1552 6125 8730 -6765 -6014 4142 7937 0
8358 -9776 2513 -2063 -4669 4648 -9348 -4565 -1799 3749 -2627 -8665 4021 -4715 -4382 0
3574 -187 4783 -919 3621 6111 -413 -8107 -5267 -8370 -8195 6519 8279 8543 8240 0
-6051 1756 -3507 1324 -7839 -3049 28 683 425 6679 1909 -8589 7202 -4155 9281 0
5058 9515 2665 -8917 -8290 4232 3447 -9680 8300 6462 7531 54 -3833 7857 3267 0
228 -2762 -4179 394 3897 -2662 4273 -9933 9417 7729 5394 -387 -1400 -6770 3229 0
3090 9876 -800 -5469 9397 -2971 -1606 -5734 -2799 -8343 -5318 -9443 -5978 -5878 -5250 0
-827 -9150 2624 -9745 9958 -2242 -1625 -9979 -2241 3217 5045 7585 -7692 -9257 -7146 0
6424 -7031 228 8362 1005 -5257 2234 7231 6616 -5602 4092 -175 -2646 -1961 -5546 0
4935 9564 -5961 -3646 4860 -2780 -881 -3652 4670 -9862 814 -2916 6419 980 -9249 0
600 -4836 -7773 5254 -1763 -6187 2313 2934 6459 6987 1969 -8133 -589 -7687 -5706 0
7664 7037 2749 3826 7144 4830 4464 2686 -7339 -2504 6499 4410 8484 5571 -4594 0
6771 6630 4071 -4207 7182 -87 8953 -1382 -8575 -7359 -1850 -2931 2203 -7610 9139 0
6623 463 6286 -7757 -4217 4309 4330 -9770 -208 4688 4752 -1400 730 -5042 -2323 0
6399 -3763 3915 5383 -8196 -9174 -7026 -4482 -3244 -1806 430 -6879 3311 3490 4902 0
898 -9846 -9120 6494 9760 -1931 1627 -685 -3130 -3507 9834 -5819 7868 -7639 -3648 0
1576 -1113 7715 -8537 5303 3847 -1177 7771 5069 -8935 2832 1659 -5209 451 980 0
-8926 -4555 6394 9525 -7524 7976 -8638 1696 -6497 -8195 1598 -2114 -5054 -4159 27 0
-8335 7864 -2184 -2559 6828 6604 9284 9457 -6800 572 3236 -9053 6306 3652 2429 0
-1579 -3084 -845 5699 7310 7988 9971 -4979 3065 -286 4744 7655 1018 6175 5651 0
-1278 4359 9509 -3816 -3860 -9418 -8975 -976 -4369 6793 -7244 7566 8118 2779 2026 0
-2549 491 -3999 -7385 -5075 -8306 -4539 7938 -6604 -9178 -9118 6566 7826 8367 -7189 0
-1372 8125 1042 -99 -9101 8412 -749 -4346 8473 -2011 -3968 -4113 -9792 5424 2700 0
-6985 -4829 7012 -1400 8900 -4444 93 -1308 -537 -6899 1001 6264 3755 5655 -4248 0
2190 -692 1616 -2188 5436 -6313 -4235 -800 -3376 -1045 -9653 -709 7760 4419 -8999 0
-6110 -8583 -88 824 4492 -1337 5754 -3534 -204 -1992 -9469 1267 -9224 3695 8419 0
-5589 7766 8742 -8779 -3883 -7279 9806 -4542 287 -395 1262 -2609 6067 -9916 8834 0
-7905 -6868 -5069 6951 3317 5837 -6293 -11 -9354 178 2288 -1483 -5523 3249 -772 0
-4338 -8986 6211 6049 -7575 7123 1490 -6621 -3728 -302 868 4548 1730 -7255 201 0
7991 311 -112 -2420 -2593 6235 5848 -2938 9494 -6677 9837 614 615 -7421 -5419 0
6502 2520 -7919 5047 -9433 3042 8887 9969 321 3773 -2008 4125 6405 -5887 -2298 0
-7837 8598 -7339 7356 1958 9944 1800 4318 -1923 -8621 8807 -8576 6065 -6581 3931 0
6241 -4842 6211 4113 -5722 -3847 6156 -5004 -1147 -3946 3514 4190 -6013 -8766 6230 0
-130 -9277 -267 6099 -8862 7774 2227 4252 -87 9106 -4411 -6209 -6906 3868 -8506 0
7428 -8982 1524 4033 -2442 -4337 245 5369 3228 9553 5615 7412 -5352 4899 5650 0
5017 -2680 182 -4880 6398 -5525 3713 2131 3383 8760 2989 454 -9564 7148 8779 0
6680 3956 -5460 6922 9586 -5931 -4739 7132 9579 -5651 2443 -7698 -5320 -716 3116 0
8824 -762 -3002 6185 7099 -8847 2820 -224 4240 -1815 2800 4827 -1034 8461 2607 0
-4776 -1738 3723 -8832 4475 2860 -3496 -1730 -7684 -5340 2846 -5514 -7230 -4859 -7967 0
7981 6959 -9831 2992 3881 7759 2127 -5040 5871 6707 -8902 -1595 1462 6751 -2155 0
8577 2493 649 -466 -6334 -6900 535 7224 6154 -8153 3184 -2661 -8349 4035 -4422 0
4067 3837 -2383 -2986 1233 -5550 7417 -77 797 -7237 2073 -461 -3463 9901 -2139 0
6370 1780 -4411 -5937 3604 1519 -7368 -5725 -3841 -7216 -7960 -6889 -9985 1596 5927 0
8276 5477 4212 -1330 4896 2266 -2467 8965 2884 5344 -590 4528 6382 -3501 -2473 0
4440 -4507 6717 9108 -9335 -4620 -9834 -5465 5227 2332 -2360 -5204 -2510 4399 7686 0
3002 -607 -4806 429 -1785 -5592 -7691 1429 -383 5244 9357 -9601 -7820 -3513 -8138 0
-8292 -2835 -9447 -6460 -4384 -8625 6737 5258 6961 4428 -5583 6115 -7856 1021 -9837 0
-8809 2183 -8964 2074 -6865 9347 -5399 -2 9145 -215 3457 -6482 -9581 1717 -4272 0
7982 6690 4790 -8406 -1765 8530 7198 2282 146 -8158 -2362 -7715 -5613 7246 -2148 0
665 8003 -6979 307 -2077 470 -6086 2151 9279 8281 -965 9025 -5635 6651 5804 0
-2025 3709 6723 7136 -2035 -2510 -1621 -8830 3738 1026 5429 3204 6319 4235 -910 0
-5673 -4791 5829 -147 7496 -1656 5493 8341 -3196 -7391 -8207 1870 6123 9615 8770 0
-6690 4242 8634 6501 321 -3934 -7033 337 -304 -7020 -3850 -4446 -4170 2940 -2823 0
1141 7597 -3030 -402 -8912 -6819 -4065 -6039 8299 -6046 -40 -6171 -9156 2723 3494 0
9735 9034 3555 -1623 3314 -2599 -3996 -4745 7223 -1269 2685 138 -107 4778 -1033 0
7798 5926 6954 -4282 -7660 -1731 3349 2675 8364 -1997 5094 4916 -2832 1419 -4390 0
848 5868 373 2825 -9286 -4243 -2505 9321 -8162 2251 -120 9808 2598 -1017 -3439 0
5054 -9232 4355 -7908 -2421 7356 4666 -2901 -2009 -7084 122 8446 4651 3405 2073 0
6647 -8177 4444 4980 -8819 -754 -3091 2936 6279 9422 2639 -1026 -6675 -2340 10 0
5381 7136 3872 9328 -7677 -8285 -2235 9926 -681 -4063 2740 -2123 -6515 6242 -240 0
-8976 3769 -4563 -8541 -5233 -6342 9227 8893 9865 -9759 7900 7661 -3953 -9382 -9687 0
9474 6287 4407 -9990 1856 -7355 6835 -3806 6327 9801 5131 -8766 -2964 -3973 1382 0
3806 7863 -2866 2027 -3306 2388 1478 -4379 -7768 -886 -2264 2977 -1845 5176 1219 0
-9902 5269 7665 3014 7496 4111 2659 -9299 -5775 -7980 6491 -45 -6985 3167 -5156 0
3144 9511 -3784 5619 8248 5218 -7539 -2128 1524 3225 6746 599 3203 8994 -3041 0
8236 2089 -5834 9948 -9228 7358 6618 -5122 7669 -811 5702 -4165 -8423 -4440 -2750 0
9160 -9414 -3548 -3642 4267 -4215 -8548 -1118 2698 -7926 1531 6523 8168 -7594 1558 0
4554 -3722 6715 1695 -5047 -7957 -7890 -455 -5529 -7336 -7421 -4619 8705 8924 6000 0
-7332 -1428 1438 359 -6090 -5319 3875 2591 1305 300 -5476 -5900 7649 7479 -2743 0
-9245 -9732 1883 -3289 -2466 -3416 -9359 -9481 -9634 -8079 3554 -5493 -6114 -9214 4031 0
2902 4251 7888 -31 -8670 8202 1522 -6525 499 4093 -691 -9811 8609 3454 -2610 0
-6681 -526 5629 624 -8971 201 -5337 -9898 -9499 -8463 -9080 4873 7009 7223 4965 0
-1372 -2687 -5019 -859 3280 9550 -7902 -1155 -1623 -8400 -7384 4028 5363 -3872 8301 0
1939 -5177 -9751 6285 4314 -5742 -2968 -8801 8619 -8616 -4138 -4585 -2350 -9163 7225 0
-4026 3656 1553 1310 5924 -3903 -8550 -5324 4306 -6562 4505 -6925 6945 5278 -9139 0
-4141 -9836 -4869 9063 -6253 2789 -1729 6097 -5356 -5126 -5582 -113 -4097 -3142 -7521 0
4551 4084 1941 1455 35 -5839 6266 -3584 9212 747 -5764 -9878 760 9049 9298 0
3107 9728 -5239 2825 -5767 1848 4149 -6553 9724 8302 83 -8291 -2707 -5084 -1905 0
1924 1430 1447 8729 4274 95 -5644 5095 -910 5333 -7115 3501 5221 -5852 7091 0
7854 4416 8425 1830 -4338 -6782 -8267 3342 1426 2001 2452 209 -7105 6882 6797 0
1978 5170 9831 2578 -5389 -9961 -8354 1987 2834 -2247 -9649 6859 -3683 8006 2629 0
-8120 -8394 -3160 -178 7124 -8587 -7632 -4848 -5927 -8112 -5957 5063 -9323 3702 944 0
-7982 -2870 1506 8930 7008 -1597 -4533 7542 -2228 7123 -3882 -9397 -6324 2848 4813 0
-2750 8854 -6359 -1361 3194 -2653 738 -5041 -3818 -8249 -7537 112 1439 -6343 -7708 0
9869 3475 -8497 -4121 8548 7223 -3136 2994 1781 7693 -1250 -9534 -8793 6924 3960 0
5673 6760 -7155 6259 -1882 7753 -8424 -7075 6080 9880 -3134 7379 -4432 -7154 5455 0
8373 8911 -659 4386 -4141 -5477 -6787 695 -1929 -5467 -4784 2791 7213 -5627 -7486 0
-2946 3475 564 2397 -2236 -2056 5704 7946 8968 -5686 -1005 4054 -8282 -4243 9575 0
-6531 2794 2023 -6837 -2156 2745 -4894 -4917 -7330 6329 2897 -5496 5452 7252 3637 0
4008 2900 156 949 -4760 3820 8916 -7747 8585 6240 9992 -654 -4749 -4248 4541 0
8834 -6959 -2083 -3236 -6398 3460 -8601 4244 1135 3268 7366 9501 -7169 6728 -1021 0
4419 -5797 -2520 -2741 9286 -6421 4825 4944 9694 -8554 3452 -4044 9188 3366 -4031 0
-336 -8327 -5630 1493 9642 9651 8655 -6130 -6766 7288 5741 -7061 -7600 -7611 4171 0
3094 -6413 8525 4204 649 8258 563 8651 8959 3330 -1859 -4249 -4751 8034 -8086 0
-1969 -706 -4256 4190 1013 -4018 -7817 4417 -8330 3146 -3338 8513 4032 8999 -2448 0
-2132 -8334 4134 2962 3996 389 -151 715 100 -3589 -7175 7363 6506 -2014 5547 0
-9223 -9561 6804 -6186 -5592 -9266 6009 -773 -3375 5338 -4522 -4085 8987 2107 -7858 0
8128 -2653 -2413 3617 1506 -6699 -7958 8393 -1231 1884 -2559 4915 -1737 -7167 -7812 0
2645 -9059 -1873 2650 4371 4493 -4897 5832 6060 -2144 2986 2979 -7766 -17 1014 0
3948 9287 5852 -3097 -4650 -1062 -9248 -3156 1774 -8231 6164 9551 8131 -2646 -8544 0
-3405 7741 -5879 403 -3764 -8310 1837 2491 -1463 -3209 9023 -8919 -4477 -118 -7538 0
6266 6674 -1617 8755 8633 -1660 -8298 1219 -3977 6731 -3173 907 -2024 3666 -5371 0
7897 5881 -7408 9649 7404 -746 -7858 -8766 -1185 366 -3295 -9785 7752 -2683 -9423 0
8111 -9109 6771 5356 -5932 1064 6270 -2369 -2048 2824 -9722 -1855 -2829 1509 -4161 0
-1548 1465 5266 8805 -4149 3698 9835 -4443 -3132 -5425 5798 7324 -139 3187 -4764 0
-1580 7802 -9332 -6008 9045 6193 2940 7749 1633 8588 -5086 2019 -8216 3555 -7238 0
-6262 8515 7795 -2841 -5810 2349 -1273 256 -4574 1567 -2258 -8350 1060 924 -3018 0
4040 2369 2638 1493 -5580 -8941 4395 -2078 -2504 8188 1627 616 2493 -1793 -2323 0
5220 4087 -5567 -3538 -8948 694 -4607 6363 930 -9542 -1263 -8347 -2798 6285 -4469 0
4260 7456 -7022 5417 -7878 -6453 -2040 -4232 -4954 2759 -8524 -4773 8395 5627 9351 0
9562 8101 -303 -5213 -5290 -2833 -4655 4788 9084 4157 -8409 359 -5844 1673 7548 0
4638 -4746 -599 -4124 2609 -540 -7671 9124 -6968 4327 -5561 -4393 -2700 -2425 2444 0
-8250 6052 -9701 8882 2264 -6141 -6745 4256 3861 -6106 -2267 3226 -500 -4734 -8796 0
-9889 3963 3240 -4256 9738 6180 3228 -9715 -7885 10000 -5822 -3661 -8602 5484 -6541 0
-8495 -8397 -8069 -7675 -2940 -2114 1181 -7232 -6537 -7549 -201 9762 -9648 -3955 836 0
477 3830 -2961 -239 7007 -5185 6816 -4921 -7849 2984 -7298 -418 9260 5021 -28 0
8080 -3443 -9353 893 -3402 -6105 4870 -9675 -9558 -9441 136 -8379 899 9070 -7212 0
1825 -1827 -5634 8932 -6638 -7129 3827 432 1098 2298 5079 4416 -4868 -784 1445 0
-7605 -776 7186 -6227 -5119 1607 8559 -7803 -4990 -9122 2744 4071 -6892 -6720 2445 0
4810 -4756 -2203 -7230 7690 1124 -299 -4865 -2257 5637 4640 -3918 4525 9515 -4179 0
802 9612 4982 500 7187 7537 5772 5195 6511 7893 -7132 6373 1278 -2525 -6798 0
-3950 4342 -8667 1627 -92 -5696 -4151 7153 -2649 8874 5001 -3947 -6490 9433 -7846 0
-3327 5890 -8498 3741 5531 3304 -6793 7955 -3812 6293 9899 7009 7029 7678 -65 0
8939 516 9726 2975 6878 9864 -7766 -4417 4459 -9174 -701 1378 1524 9395 85 0
8222 3256 -1171 9026 -7243 -9680 8058 6622 -6650 8200 807 9152 -5098 9905 -8963 0
3201 -8452 -7434 3270 -3203 -4903 -633 9967 4494 7675 -6515 -5248 4971 -6720 6183 0
6954 7197 7290 -811 7026 239 -1661 -9937 4739 7200 6719 -4020 6492 -7111 -329 0
-7317 777 -4781 9784 1825 -3817 8598 6007 4894 -2591 9684 -3918 -7207 9156 -8277 0
-224 -801 6782 -2232 4551 3675 -1873 -632 -412 730 -5291 5482 8026 5636 -9290 0
7892 6101 -4008 -7172 -993 -8443 2406 -7829 3453 5371 7275 1813 5259 7981 -8481 0
9439 1043 -1863 -8525 -8448 -3679 5966 -2256 1704 -5796 5237 9951 -6840 9188 1892 0
1392 -815 27 4738 7910 95 -9274 -7697 -2436 8208 -7268 5843 -633 -2283 -4273 0
6626 7249 8722 -7369 -7878 -1690 -5290 8674 3939 2780 3927 -6627 5952 5123 6327 0
-6570 3982 5747 -7769 3102 9573 9767 -9678 -9668 7281 4498 -7669 6751 9579 -3858 0
2479 7793 -1609 1903 -8812 9953 -4958 -9974 9844 384 3188 -3424 -855 3435 -7922 0
-6266 535 -7053 490 -4199 -9937 5617 -1631 2433 -2678 -8570 -9965 -4820 4367 -2181 0
-1976 -8837 -8773 -8299 8155 5760 4907 1515 8971 980 4253 9073 5223 -9667 5980 0
7058 -1676 -8013 -7671 4629 -7457 2737 3484 2854 -912 -5579 -4504 8156 3920 2463 0
-1102 -2020 -2538 -1137 -9245 -6532 5481 8546 -4727 1629 558 779 4558 -4714 8525 0
7618 -5237 -1868 2362 5878 275 5716 2462 3377 3931 2657 8646 9894 3543 -2406 0
2257 -7824 -3717 -5486 5948 5438 -3119 -147 -6199 -3049 -3942 1706 -4981 -5395 -7430 0
5402 -8182 3954 -1630 -6734 4613 8513 -12 -1126 192 4757 -5646 9956 2723 -3555 0
-3833 -9928 6542 -4943 6944 398 -7462 -2056 2438 -1485 2207 -3519 -1291 8779 -6133 0
-7718 1957 -9108 8747 8191 -9500 500 4628 -6664 6388 -198 -9060 7666 3528 -297 0
2610 5845 -6381 -3287 -8898 2050 3322 6967 -9401 5368 -3431 -1131 7320 -8904 -4757 0
-3039 -3755 6280 7940 7735 -3598 -3266 5294 -9312 6321 -2908 -6533 9649 4829 5223 0
5589 -6385 -2464 1856 -4618 6560 -6476 9605 6671 -7957 7983 1500 -6198 -355 -4783 0
2720 -142 -4317 2463 -4486 -5690 -3295 9375 4664 8989 2655 -8331 8644 -3023 -5287 0
7927 -8990 -6679 -2858 -8459 6664 -3807 5796 7594 8535 9709 -2069 1460 -1263 3567 0
-7794 -2269 -1613 -5290 5995 -8949 7280 -8764 8979 -8729 6233 -3524 -1106 -3398 -6280 0
-5177 -8051 4031 482 -5087 -7101 152 -8031 -6820 1101 3958 2104 -8395 -4901 -6538 0
4856 -1434 4996 9262 3659 -4138 2670 -1649 -4292 5806 -3508 8176 -900 -1656 -6627 0
-8720 9984 -4291 -1725 399 -5539 -7697 -2960 -78 -2175 -9907 9534 -8600 -1577 -8613 0
-301 4694 5370 -2089 3010 -807 7444 -1093 7004 6547 6740 8497 -4941 -9773 7007 0
-7833 -8620 -3739 837 -6473 5415 6349 9647 5624 3137 416 -2103 -6101 -8260 7117 0
6486 -7443 -9714 2830 -3043 4057 5673 -9281 3971 176 6991 -4477 1346 2867 -6635 0
9732 3770 8471 5210 -4722 1632 2927 2843 561 -2033 -2050 -633 6244 -733 -8637 0
6920 8734 -6530 -1878 6950 -4152 -5665 -5776 -766 -9767 -4687 -1791 8389 4429 -2668 0
-1335 9096 -533 3452 -2207 7452 -1492 881 7055 8128 -1092 7997 1299 9651 6476 0
5165 -9772 -3078 8804 2539 -5924 8980 3307 -249 2212 -2190 7063 -6798 38 -9026 0
-1893 4900 -7918 9346 5011 -694 5849 -2482 1341 4808 -3715 -6769 -5064 -675 -5411 0
2583 6005 -4129 -1602 -492 5637 6951 -3548 -7961 -2988 -8090 4895 -4929 -8429 1807 0
2876 -1166 -3006 2478 -3793 1673 -8859 9822 3766 -2145 6391 -9072 -4815 416 -2989 0
-8550 1766 2555 -3474 9777 4114 -3117 -7500 -9439 -6727 -2088 6678 9363 540 2048 0
2295 -5184 7807 7196 2424 -1389 3562 -8765 715 -3428 746 -3936 -2179 963 -7809 0
-5689 -5029 -5150 5947 -8237 2233 6270 3076 -4191 1747 6950 8434 -5603 8347 5643 0
-8763 293 5541 -7752 4060 1881 5118 3040 2145 8807 290 706 7227 -836 4300 0
-4926 -9912 5349 -3686 -626 -2982 -1568 9852 5789 -1310 -8221 3701 133 -8889 671 0
4085 -2826 -709 4369 565 1496 3057 -4158 1732 1667 -621 1989 -2252 1977 2851 0
-9773 1199 9716 461 1372 -1484 -6532 2361 -27 -9095 2444 -8294 -6914 -8659 5302 0
-6898 1371 8945 232 7800 2484 4967 -8540 4445 -998 5463 -2523 -3048 -2305 5633 0
7579 -8528 8806 7288 -5763 2840 7894 -4992 -9940 5875 5167 5977 -5336 -1104 -161 0
539 9806 435 -9001 3477 -6513 -636 7029 -239 9910 -3002 -4200 -8107 7731 6990 0
4053 -8663 -7435 5963 2919 9974 4160 -9818 3705 2944 -6291 3782 1744 -6552 1558 0
-4630 -3213 9083 5582 8523 866 -7848 4162 -182 -9399 7373 8046 -8014 -9986 -7746 0
-3383 9433 357 -6066 -1025 -2949 4758 6251 3044 -9794 1262 7471 -9860 -7713 -7531 0
-8752 -757 -2831 -9849 -1538 -3377 -4008 -2219 6576 4766 -1198 -8540 7804 1398 6720 0
-7959 -3135 -8624 -5572 5004 7025 7949 4349 -8138 -8404 8098 -1413 -4026 8702 679 0
-2641 210 -7370 -5446 -8913 5310 -3422 -4873 -5854 -1866 -9908 -5581 3227 -1216 3521 0
-1826 -9905 7207 -2733 -9355 -6372 -9606 -5233 -7601 8067 -8670 -2257 -8828 -7546 -2528 0
9270 8636 1627 -4415 -4113 -7305 5099 -3377 -7817 4911 603 3625 -1387 3794 -8367 0
-3109 -1672 -7030 -3836 -5768 -3732 -9737 2592 1576 6274 4988 -1427 4718 6526 -5658 0
-3527 -370 -9279 -3573 -5773 8307 -7866 64 -1016 3872 -9750 -3256 1453 -3978 -809 0
-6452 7837 -3627 -4911 -7755 5130 4395 1802 276 163 375 -4780 -1442 8372 -3597 0
-9673 6267 -3365 5856 8931 -6798 -7793 4138 -9678 -2254 7913 3837 -9125 7455 893 0
-7529 7490 5635 -3222 381 -284 -1559 430 -4645 4313 7361 9134 -7966 -8988 2214 0
3866 3200 -5164 137 5467 2507 -8600 9303 1973 7928 -1381 2810 3499 680 9835 0
8633 -5307 8891 5445 4807 8860 276 -4354 8351 -4131 908 3192 -4744 -2557 1859 0
3303 3145 9999 -3058 -2524 -1978 -4983 -986 -8263 -2783 9203 100 -6699 -4493 -9053 0
8904 -6158 -6286 1238 2237 -4921 7835 -8719 -4838 4301 1056 2126 6811 1813 1447 0
-6164 -5135 6549 -6687 -4307 2875 -4930 7796 2143 5942 8014 -3226 -3410 3844 4933 0
7638 -2621 5931 -1053 5649 5165 -254 10 6097 -9798 -2889 -7341 -7322 -9399 2912 0
-3367 -86 6512 7489 -4331 -5272 5737 6252 -4171 -4625 -3985 -7179 -5017 1933 -963 0
1648 -4421 5750 -1611 -1128 -9134 9503 -8987 -4544 -248 -7333 503 907 6216 1604 0
-4719 6125 -1137 -8008 -1459 7078 -8678 -8733 1068 8352 -304 -2750 2717 -5466 3251 0
9026 8700 6964 3444 4949 -6932 5717 -7408 1034 -5351 -2121 -7435 8805 -2352 -9113 0
3980 8885 -6362 1936 -9115 -4573 -7530 -6842 6612 1108 -9489 2057 -1620 4244 8718 0
-8774 7777 -5918 -9051 -3125 -3497 4579 1611 8656 2882 -6242 -9743 -2516 -9010 3263 0
-428 -874 -4713 5139 -1246 2620 1676 -2488 -4242 9883 -1888 553 -5313 389 3068 0
-3822 1309 -1824 -3688 9594 2625 1157 -5100 744 -3103 8031 -3931 -9532 -7887 -1094 0
4559 977 465 -861 5322 -5060 3375 -9322 -7606 856 1560 8963 -2455 9370 6373 0
8546 -9096 -5520 -9623 -5928 -1846 4911 -874 126 6626 3794 -9241 1069 8913 -923 0
-9978 5772 -1999 1252 -6364 -7781 -2743 -4246 -1327 -7570 5390 6139 3868 -6555 5553 0
7474 8531 -615 -8451 6672 -9273 -5797 -3720 -1557 8919 -3323 661 -7080 5499 4137 0
-3896 -6600 3295 -754 -8234 4554 -7675 8904 -7672 4547 3856 2111 -5025 5600 -4282 0
9935 -4186 2971 3135 5765 -7546 -9720 3890 8012 -4456 8501 8988 -3677 6725 -3027 0
7810 6658 -2085 6692 -8047 -9477 -6428 9625 5292 4610 -791 -987 -6976 6235 845 0
-6450 4874 -536 -2317 8234 4440 -7763 1489 -2098 -1153 -2712 7336 1497 -5616 -4766 0
8561 9509 -1107 5436 -1879 -8797 -32 -6888 9623 -5856 -7099 -8701 6074 5747 1354 0
-4235 -8091 -1088 6002 9602 -7809 7606 -3812 -9588 -7291 -790 7536 441 -3866 -9095 0
3102 7029 -1451 6483 -4718 8408 6451 -8860 -5385 -8468 -2140 6857 4112 -230 1318 0
9939 3157 8195 8596 9026 -4351 -6502 4253 -8685 -6973 -8261 -5178 1056 3504 -981 0
-8117 -2777 -7760 -2864 -1842 -3831 5198 -2266 -5159 7041 -2571 379 4895 -1165 3502 0
1381 -2537 8428 525 8748 6403 -2932 -5718 -4078 -2291 9649 -549 -1855 -2125 -7766 0
2372 6716 -3169 5321 621 -19 -873 8856 -8439 7108 -638 4899 4036 7633 -5302 0
5099 -332 6638 4546 -2563 -7805 -7621 -7576 887 8066 9831 -3145 9391 1477 -6918 0
-6303 -7714 -6916 265 8071 -4339 1758 281 -1020 -3455 3490 -2812 7518 3590 3362 0
639 795 4384 734 -5046 -2174 3359 1806 416 -7667 2286 3169 -3188 7923 6411 0
9350 6747 4085 -1725 -8848 9750 5433 -6133 -3573 912 877 -4600 6969 2212 -8362 0
-5411 -7012 5097 535 -8199 7043 9374 7014 -7098 6990 1245 3923 -2543 -9033 -6148 0
-7149 -6748 -9177 4752 -8281 -4499 1020 -9830 100 -364 3136 3380 -962 -532 -5318 0
-2407 5127 -6932 5085 2176 7214 8213 -2000 2208 9848 -1849 -7715 7070 3382 -6693 0
2155 2706 -5831 -6728 2104 -1249 7814 -6792 -6997 -192 3606 6153 -956 -9014 4683 0
1752 -9143 7132 4972 6300 3940 -2823 -1777 -2925 -7258 -6399 8658 -2967 -5096 -9955 0
-6677 -1302 9364 7735 -5788 -2844 7816 -1190 -4904 -1973 -6888 8898 7015 9561 2549 0
6058 6093 2193 8290 -4150 -4821 -4152 -1376 -8970 -606 385 -6116 87 8276 2950 0
-6998 1367 -2955 -9880 2550 -3593 -4031 -7647 -24 919 4948 -8884 -8690 -5719 -2032 0
7781 3011 8800 4285 -4334 5059 8974 -3017 -5486 -5437 -1858 -2720 -3415 555 5456 0
-7661 6525 8139 -6207 -4186 9982 -3400 5797 9639 -1517 -7375 5995 -9485 -5148 7527 0
-3398 -5407 -7789 518 -6286 -5410 8467 -1344 -9663 -8785 4774 -5028 -2818 -5880 3024 0
171 3818 7422 5185 8878 -9406 -7844 -6753 -4429 -6152 -4640 1008 9229 -3584 -3888 0
2255 3958 -9736 7194 1107 -6515 9247 -5911 1928 -8508 6390 3837 -5243 4447 -7864 0
2372 4036 2835 6747 -1763 8723 -322 1723 -6039 9385 -5949 9478 672 2910 -5363 0
-3301 -1288 7129 732 -7634 -81 5706 -4957 7200 -6545 -5928 -7164 -2314 -2716 7469 0
-3944 2628 8388 -4396 -7913 -9866 7049 1605 1001 -6922 -7514 4414 4198 -1964 -2341 0
-6381 -2928 -2873 9395 -1363 -4947 9286 -9020 5600 -5132 -7278 4263 -5289 -7823 7698 0
-1323 409 -7472 -6909 -3205 -3942 -8044 8746 5045 -4776 1857 -2472 -1261 809 9013 0
1974 -7657 4246 4696 -5529 4211 6149 -3732 6210 -9156 4030 -8970 -8797 -1737 8702 0
-4967 4975 -9156 4848 -9482 -3053 6423 -771 2049 -3427 -2893 -5178 -5398 383 -8922 0
-3306 814 4536 -4541 7127 -9041 5709 -5521 5169 9514 -7483 6960 -6566 -9273 -8768 0
-4266 55 9522 4138 7772 2169 9701 -4682 8229 -3932 2937 6761 -6086 1297 -199 0
-9551 -6205 -4891 1446 2816 322 4609 -8030 -8689 -3459 418 -8763 9660 -3885 -5523 0
5818 5014 2673 -2935 -7763 1525 -8609 1964 -3909 9702 -7688 7630 -3358 3088 4084 0
-8930 7840 -4993 3628 5413 -2682 1285 3953 9442 -6788 8563 9071 3624 -3634 949 0
-1758 2783 9598 -1569 -6503 -3799 -5254 -4493 6637 4314 -9613 4658 7413 4182 23 0
6040 -6575 568 360 428 4207 2908 -9609 -9610 -7146 -4993 -3214 1698 -2492 1695 0
5521 -7101 -6522 1087 5945 4192 4056 -2285 -6323 -7464 -5772 -9616 -5357 -9253 1186 0
1981 -5371 2169 5902 -7202 -2164 2278 -8487 1203 4692 -46 -3655 6701 -5837 8863 0
9982 -7566 -5840 1954 -3358 6644 4029 -3307 -759 -4046 4068 -6056 -1968 -4053 -1987 0
-8851 2635 190 8217 -2405 -9264 -7017 8957 2760 -7386 8240 -1249 -7639 9893 5053 0
6683 -593 -3679 -1635 -2896 -5637 -4095 6644 -9169 -3959 7709 -5988 -5918 -6002 -708 0
1740 1070 3504 -6530 671 6332 4491 2452 -319 -859 6643 -1514 9548 8460 -21 0
6946 -7102 549 6215 -1807 -4837 7895 6520 8396 3179 -4114 -4680 -8246 -8897 9692 0
-4830 5513 -1929 5878 2599 -436 8208 4939 -1862 6427 -8321 828 -8991 -2931 -8410 0
9534 4093 6054 7408 453 4677 934 1308 6233 -1914 -2312 -4027 8306 5794 5298 0
-4141 -9500 -2374 -9187 1718 -2673 -9529 986 -2370 7407 -6046 -4583 -2432 2835 -958 0
-8942 1373 -3668 -3906 -2221 -5600 5895 -5295 8883 8366 -757 2154 -806 -8326 -9608 0
2783 4025 -529 1443 -4060 -4779 -5958 -1444 -5180 -9467 -8727 8424 1143 -1886 -3070 0
2554 3012 4828 7929 8151 -8406 6067 -4901 -5532 6285 8897 -1604 2004 -9166 -2070 0
-9148 9335 9782 2509 -7661 2717 -2414 3621 -4959 2479 1146 -5209 -2762 -689 -5898 0
-1380 -1097 -3570 -5894 398 -9354 8714 4578 513 7736 1505 1669 1984 5400 9369 0
-3708 79 -8745 -632 -440 -8416 -3493 4966 9936 4824 -2497 3362 -3412 -4563 -3906 0
8685 -4238 4634 137 8238 1382 -4498 -914 724 -4482 -9032 -136 -5893 8068 -6403 0
731 -1289 6550 -7650 -232 -6340 385 1728 2033 3118 -7774 3599 -3742 -2180 8879 0
-5909 -9255 8380 2060 -7028 -6113 -3260 -5476 8982 -7446 -1091 -6977 -4300 5966 4757 0
-3481 -6352 -2188 -6483 -5516 -5868 -7379 659 5669 7607 -8302 -408 6651 -7507 7960 0
-6333 -2665 3698 -3263 2803 -9767 6632 7018 -6231 -2544 -7806 -3105 -4424 -9771 9491 0
8175 7763 -1281 -4328 1235 -7021 1883 551 8219 6012 -6875 -9652 5482 -603 -14 0
-3593 -6097 -2264 7491 -1055 8429 -7090 -8192 611 6466 -5072 -5727 -9561 3689 9187 0
7792 9670 -3593 -1505 -9037 -8276 -2674 1678 -280 -6107 7622 -9848 1320 3099 8077 0
-5020 -1793 6651 7009 1292 2708 -6365 -6689 -4397 329 -7730 8154 -2946 2459 5795 0
-944 -4166 5892 7422 7419 3013 5199 -7283 2018 -2615 9244 6987 -4406 -5559 -7533 0
-2270 -5799 7530 4817 7330 -2812 4101 3180 8953 898 -8975 4013 5657 447 2323 0
-3385 7015 5582 1695 4027 4713 -1904 7905 8648 -2883 5647 -3251 -9142 8687 8606 0
-9596 -1476 -6765 -626 8680 3815 -3674 4648 5216 -6796 6918 7758 9774 -9896 1913 0
-4396 -931 -3206 -313 8144 554 -1956 -5415 3474 1954 6007 4581 8407 -9909 -1247 0
-5440 608 8581 3224 -6478 -9928 -579 3024 -4782 4234 -6568 9590 -212 395 8002 0
-1712 9049 -934 -726 -6394 3485 7973 5164 -9722 -8222 4800 -6932 -1370 -5850 3536 0
-8369 3502 4211 -4487 -1757 -9116 -458 4264 -6087 -5247 3685 -3953 7973 2157 3784 0
3462 -5040 4153 1188 1668 9864 6954 -96 1566 -6762 -5839 8852 -3178 6175 9102 0
-2601 -8730 -4350 -9818 -1161 5397 1947 5608 -7050 -6738 6920 4383 -7800 -9280 -7085 0
-9085 -7364 -6940 -1435 -7987 -700 6927 7186 -7996 4609 2943 9542 -5351 -5702 6489 0
2591 -3957 5470 5341 -7504 -1483 9076 -6703 -6215 9834 -4434 2221 -1150 -1521 8954 0
-3463 -4545 4456 9243 8329 8665 6848 -2321 -867 -272 1725 -6542 4265 8711 32 0
6604 -248 -5820 8526 -3863 -5460 -2703 643 8694 -6040 -1912 -8247 834 -3239 -8064 0
-5960 9710 7108 -7392 -2271 -6906 -9107 2781 3360 9332 1140 -2553 9549 -7623 6008 0
-5870 -5168 -1924 -5170 7357 8282 -4606 4849 -5385 -1714 -3235 -538 7026 -9766 -8684 0
-2947 686 9039 -5020 -9579 9070 -522 -1703 -6822 8813 -9814 6834 -4611 -702 5159 0
8819 8074 -4457 -4793 -1048 2488 -6063 -4281 7824 -2205 -6879 -7724 1227 1447 147 0
-8050 4588 -2130 -8861 -4813 -519 -9193 5951 6517 9496 -7515 -9510 -985 5970 -8730 0
9258 6880 -6188 1565 -9750 2342 8284 -2497 -7645 734 -4090 -3970 -48 -115 559 0
5454 -8330 -4538 8085 6115 7357 2604 -8874 9409 -9012 3886 -925 -6779 5116 5253 0
-805 4330 -9051 -2192 847 -813 1785 -8843 6437 7360 -8156 1469 -4783 6720 4348 0
-2070 -409 -8855 7988 631 -4897 3462 -7132 -6202 8393 6796 -1128 5928 -1741 -7131 0
-3823 4018 -1549 -1944 8283 -2533 -8725 -9648 345 9251 8911 1100 2307 -2765 9136 0
7861 -4235 -3044 -7305 7126 -862 -7587 6307 803 -5245 -8075 -3466 -6079 2193 8670 0
3668 8706 4303 6227 -3379 -5343 -2735 9169 -196 -1344 -8587 9422 -5408 -6459 -8602 0
-5602 3475 5278 6316 4823 -8347 -790 1084 4240 301 5566 498 -9896 7803 2097 0
-3586 8233 6292 4702 -6487 9359 361 9832 2192 2045 -3270 5926 6075 8682 7815 0
7965 -6302 -9291 6376 -9028 -3018 -6976 7863 2039 -3858 1606 -143 2040 4233 5942 0
1261 -4065 -1493 2517 7763 -1269 6547 -6375 -9958 -5066 1427 -1118 -3711 5773 -6881 0
-5734 7390 4219 -3354 6014 -6277 -7569 3570 -4576 -5084 581 -6256 954 8130 -6184 0
4852 3389 -4070 5696 4795 7588 -358 -8487 7369 -8768 -4047 -8336 -391 -4819 1674 0
2033 5484 -5234 -7739 1215 -9948 -8778 297 -1058 9846 6908 9888 -685 7354 2357 0
-4544 1017 -844 255 6357 7085 1212 9071 -1855 -4266 -3312 3527 -4770 -852 -8337 0
-6565 2287 2474 1993 5773 2982 -6790 -2116 1368 -6660 8769 522 8698 -2613 -7635 0
4203 -5850 8001 -3561 5182 8765 -5148 232 9660 -1076 6103 6529 9009 -1136 9814 0
2598 -1572 -8581 1558 191 914 4029 -3136 7755 -7052 -6179 -4243 5292 3900 6153 0
1194 -3419 8195 4255 448 -1866 -2397 3394 3560 1570 1907 5595 -6317 -8439 9520 0
3473 4179 1701 -7007 947 84 5445 697 4322 405 -4636 -1034 8095 1294 7473 0
-9367 1798 -337 4145 -2097 5727 7496 -7626 9112 2995 -7668 -3936 9119 6448 2322 0
3598 -1994 -4100 9203 9392 -1877 2642 -2544 5882 1581 -2446 7486 4403 -3885 -1773 0
-4471 -845 -7105 6302 -3591 -1839 -3449 542 -503 1077 8478 -7850 -6628 -5977 5455 0
-6662 -5759 5860 -4844 2530 3799 4292 -2538 -2472 139 3967 4865 -5857 2917 -9793 0
8902 921 -7384 -5792 5406 -7630 -3961 -3801 6093 -557 4729 -5014 5317 -4551 4265 0
-7610 -4832 1251 7343 -6857 6180 -6926 -4038 6074 -8662 848 840 3966 -3607 5850 0
7821 2814 7033 -3961 9210 8624 -6274 2587 7527 1821 -6536 8323 3353 -4364 -5484 0
2811 4409 -707 -7880 -6711 -4056 -104 -2587 -7350 6469 -6728 -3724 540 -5880 6330 0
-2612 -5586 9175 7611 6038 3232 1102 5966 6225 1193 2617 -130 -6781 -6367 -6238 0
-1653 -5332 -1750 5865 7610 -488 8775 -216 1381 -1924 -8565 4424 -978 4431 4343 0
-3319 -5933 -2956 7981 6131 -7852 -3766 1587 -5716 4599 2058 -1548 7197 -8472 8778 0
308 -3067 -7769 3090 -5621 9280 7134 -7151 -4516 -3178 -670 3278 -7323 8654 -8645 0
-386 -8082 1596 -1581 6731 -4038 -1170 5528 -2817 5003 -4221 2191 -4934 6840 4858 0
-528 -9119 9632 -7424 -2060 836 -192 4970 -7057 3303 -3287 -2731 5071 -6082 -5019 0
-7596 2511 -2324 9177 -7780 2546 1935 -189 -3324 -5641 971 5482 1271 -8094 -6635 0
9899 -1109 -2662 1854 6662 4869 -9935 8037 2480 4385 -5409 6851 4448 1843 8332 0
9446 4569 9511 8177 3778 3458 -8139 2981 -8731 3990 -2239 1916 -4528 7558 8133 0
7540 -6122 6486 5109 5464 -9584 -2422 -9766 -31 -2262 699 -3688 1275 6989 5560 0
-1594 -5827 -6757 4471 -3278 -2276 -6219 4557 4362 3571 -6495 7591 -5676 1000 6808 0
-8287 6722 7924 221 1860 6538 8969 -9892 6301 -9857 -9446 -4470 -1364 -2752 1594 0
-8458 2803 1430 -7305 9433 -2671 9503 287 3768 3223 6581 5818 -6909 3085 1786 0
2135 2543 -8216 -4276 -7419 2132 4868 5794 6001 -125 7906 7547 3347 4494 7300 0
3153 -1403 3393 8234 -4641 -7378 9485 -6860 2170 4266 1561 6806 8373 6240 1874 0
-3685 2643 4645 -5960 28 -7982 -8412 1033 -2012 9984 1296 105 -6406 1824 -17 0
-2608 -9987 -3957 -6756 8278 -1749 8794 4862 -9109 -1962 9321 7104 4533 -6495 -8844 0
-9286 -8016 9403 -848 4875 5533 -3105 -8401 8949 -6610 9827 4108 -1392 -3100 4935 0
-638 5909 -8685 -659 9213 428 -9882 4223 4113 3963 -7534 -2908 3351 -2079 753 0
-8470 -5774 -9413 -8300 1971 -4409 5966 2342 -4647 -5848 -9173 8264 -9122 6926 -4308 0
3771 -4973 -5100 2004 4911 6791 6031 -9321 538 -5042 -1270 9661 6851 -3584 8774 0
-7492 418 7982 3287 -5624 -8211 4918 9303 -8660 -6997 8944 3819 -4990 6552 -5486 0
3219 2465 4988 5743 -1577 1721 -7 4695 1847 9021 -8950 9593 8123 8330 5784 0
-6845 9932 -2070 -1430 134 3893 3093 -4524 4502 -1518 -33 1409 -4008 7303 -2494 0
-5736 -2516 -1783 -7398 -3916 9229 -1329 -9590 6507 -3704 8455 8343 -8891 8039 -2996 0
4631 1360 8233 1723 3570 -2229 7264 -6442 -6664 3337 -9913 6171 -3055 -4294 376 0
8838 -436 -9998 9300 -8316 -8915 3735 -6076 -9925 6906 5347 -9952 5567 -5691 2063 0
-2376 -4545 1288 -3198 -536 -8611 -9534 6528 959 -5948 430 7700 3917 4665 460 0
-8435 -8834 -6165 -8968 -5488 1219 5633 1432 5140 -8232 7426 -1762 -8669 -6874 7170 0
-8933 6398 3361 4859 -4237 4769 3369 3666 -9999 -8903 5105 6419 -8154 2524 -7958 0
2969 -4231 1457 2050 -1375 6312 -4028 1511 5867 -273 -6240 6589 -2855 8460 6399 0
8987 -6013 9218 -4531 -7665 5586 -4721 -640 1233 -7953 -4881 72 4110 962 2827 0
9320 6580 3585 3120 -9348 -642 -230 -1750 -2110 -6809 1066 187 -4965 680 5104 0
-7660 -4869 -1589 9275 -7412 1344 -5814 6165 6508 -43 -1239 -658 -2328 -3868 -8829 0
6313 5216 -4655 2413 -2483 -1552 -5368 -1164 -5459 -978 5304 -5692 7555 -7349 -6402 0
822 -4990 -997 -4481 -4406 -9072 606 6294 5560 -7684 -5380 -821 -9012 3897 4946 0
8112 2671 1980 -4777 -7853 -4812 -4675 2065 3150 -7814 -8616 7628 -4306 9319 675 0
5946 -5889 4467 7058 -4054 -6321 -2814 -7962 455 7796 -4976 -9133 -4686 4888 -6266 0
-5301 2410 2461 8156 -1776 5907 8644 9176 -441 -2756 -3031 -7720 -2642 -62 1947 0
-1270 2876 -7705 5875 6265 3374 2782 5263 -5397 -3449 7675 5322 -8665 -5233 5300 0
5460 4196 -9839 -169 -937 -5930 -1486 -4755 -3277 6897 -9873 9537 7843 9076 4157 0
-9722 3138 -8741 1790 -1468 9343 8505 -1110 4361 -9405 9172 353 5974 2523 -6801 0
5369 9506 -9193 9035 -2031 9305 -5938 -2980 -9328 1166 5826 3199 -8383 -7317 -2519 0
5370 -2588 -1952 9867 4096 -8765 -5688 7774 -8676 -1485 -3490 -7308 2280 -8689 6837 0
7019 3375 9345 -3930 -5661 1727 5718 1347 2254 1840 7448 -9842 525 9237 2952 0
-5143 -7956 -8428 -5442 -1150 -3849 -3326 -1989 1689 -8232 -5519 1586 9009 516 -756 0
-4783 7662 209 368 -1302 9270 -8041 -2372 -6638 3557 9273 -3615 -4197 -1420 -7520 0
1836 -2534 8564 -2083 -3521 3436 1939 1318 -5628 -3028 6264 6323 -4688 -9726 -9519 0
-5861 -2247 -6100 3466 4918 7951 2252 -1799 -2711 -5571 -6279 -1852 -7046 2752 2575 0
9075 1034 -2493 -4375 -1523 9969 1308 -1104 6836 8565 9773 5360 -1580 3246 -205 0
-4179 426 3141 8884 -4663 -1132 7316 3925 6693 5028 -4088 -9243 5400 6319 -4905 0
-2138 -3799 4758 -6439 4498 -2828 -9540 6664 4363 1360 430 -2946 -948 -7646 5131 0
3630 -9868 -8003 6435 -5211 2632 6216 -7285 1291 -5847 563 -60 -4594 3795 1115 0
3769 -4453 -51 -6829 1878 -6713 8143 -8288 -3216 6269 7519 -9844 -8484 -7280 -9443 0
632 32 274 -7651 -9830 -4149 4895 1418 -9806 -6953 -2319 1135 2202 -1948 5151 0
7467 -9362 -7498 -1105 69 357 -9653 8471 8649 747 6683 7311 1352 7860 3117 0
-4031 295 7629 -2884 2028 3699 2360 -950 -9498 -8633 -5899 949 9783 3859 8158 0
4312 -3613 504 7240 4008 -607 5907 5329 5989 -1283 -4530 -8325 -2550 3439 2087 0
2335 4054 5468 -7295 -9351 461 -55 -9612 5352 -4884 -3713 1393 -7037 3426 -8673 0
-831 -4352 3757 -1673 7589 1928 6589 -4623 585 1640 8924 -8968 4324 -7221 8033 0
2634 2932 -7348 -2946 9351 4562 -908 5786 4503 -6434 -6080 -1768 -9798 -7581 1260 0
1113 -5496 -8384 9441 7943 -8877 919 4685 8848 8060 9457 -8971 2903 -309 -595 0
7619 4890 7122 -8690 -7896 -1879 9193 6982 -8222 -8788 -4007 8214 1755 3844 9568 0
3957 -2878 -3301 -3252 -6762 -3259 -2010 -9781 4381 4239 1648 9144 -7097 -455 72 0
-5593 1130 994 -8465 826 4518 9454 -7939 7301 3530 -8512 -4232 -6081 5704 -1393 0
8213 792 -4197 4767 -1404 -2345 9406 1269 -9674 -9356 -501 -1563 -5608 937 7649 0
-7748 940 -5869 -5975 -3475 -325 -1853 -6369 -2873 708 992 -839 8893 -683 1025 0
7011 -8037 7706 -189 4478 952 5505 -1324 -3893 -3558 694 -5532 -9338 9910 -2127 0
-163 -2916 -6829 1163 -1310 8845 -5591 8574 2630 5395 661 -4308 5176 1818 -4296 0
-8469 4546 -953 9379 -1927 8154 8985 -6916 -1852 -2527 -149 1880 -4258 -7747 1451 0
6555 6325 7825 -1222 6808 7165 1440 6628 9458 -3438 3936 -6528 5097 3844 -8642 0
-4599 6656 5623 8614 3604 6160 -3474 8334 1988 1302 -2368 6023 6083 -652 4590 0
-1131 1638 -4487 2471 -418 6931 5165 -7535 6895 -8099 -5312 5794 -5706 575 7019 0
-6898 -8076 -2195 -5596 8000 -5427 -146 4935 3196 9261 425 -3103 -7167 -9002 -1743 0
2986 6191 -6508 2946 -9995 462 1671 6049 824 3470 -3973 3342 6375 3895 -4063 0
7653 -7566 -9486 -3439 2141 8001 -1392 7861 6600 302 5895 1581 5583 -3792 -836 0
-4256 3760 5441 -7650 8771 -513 1711 8253 -1968 4753 -2211 -4123 2825 -5911 7900 0
4433 6747 -6842 -1341 -7647 -522 -930 -4522 2645 7512 -3674 3339 5881 6530 7834 0
-9278 -1216 -8405 4425 5295 59 5764 459 1071 -1251 4117 -6016 1538 -9958 5784 0
3737 9617 8234 -2048 -8933 -5458 -7575 1783 9900 -8966 -9529 -6034 4315 -5726 7649 0
-5467 773 -5221 56 2602 970 2356 -5024 7373 6248 -5890 -265 7803 -859 -8741 0
2134 1619 -8159 7133 -1111 1736 -482 8441 9228 939 -7056 -5888 -6180 7746 1617 0
4807 -7199 -128 -5409 -3290 -1588 966 4148 -7584 6462 1889 -4270 4500 -7247 -275 0
6962 9771 9927 -8746 5604 -4744 -2655 -1471 -9797 127 -3934 -6988 1316 718 1881 0
6144 -696 1202 6023 -1042 4099 4056 -477 6431 -5681 -5077 -323 7252 -9277 -8995 0
-5984 6180 3265 -3177 -6945 -8678 -8243 -4389 -4559 8286 5317 -5791 9738 -6471 546 0
-5695 -7017 -1215 7178 7400 5856 2982 8964 -7673 8786 1525 2342 7561 7108 5371 0
830 9287 -2467 -4998 -2535 3623 -6669 -2942 -2688 -5146 -4766 -3489 9550 3650 -4363 0
-15 8917 9789 6431 -2349 9169 8220 3959 -7437 9376 -8130 -6401 -4423 -2820 -2806 0
-2420 -2982 -8455 -6822 -1782 -7609 2896 1857 -3389 709 -6553 -2831 45 -4592 2088 0
638 5249 2155 -962 5221 -2166 604 -144 -3139 8494 -7268 7121 -2178 -4367 -9861 0
-8007 1355 -655 5128 -1999 9212 -902 -1998 -3559 6383 7153 -101 -9391 -1923 617 0
156 3150 7066 -8829 3250 3235 1543 9601 4715 7851 8595 5346 -6448 2824 8119 0
6769 6221 -6931 -9010 8726 -357 -1169 5492 -1112 -8329 6233 -1076 -7379 -5603 2134 0
7972 -8866 609 -3144 -8970 3109 9878 1385 -782 9884 -7824 -5487 -588 3857 -6706 0
9462 -5513 -3253 1631 9251 1993 -4541 8500 1465 -7943 -6914 -4732 9750 5136 2692 0
206 -1996 -1552 3706 -633 6763 -7988 -8855 -4571 9409 -947 8209 5360 6615 -1307 0
-4511 3019 -2055 -4578 2930 9256 621 -1162 -3265 -8187 5356 -3828 -9083 -5675 -6205 0
8807 -7980 5799 -8258 3120 6471 -4110 -5750 6225 7469 -1235 7572 -6915 -8827 3581 0
9779 521 5929 -1269 1072 -379 -853 3456 -4224 6235 -9778 9150 -2554 2124 -7938 0
6600 -6890 6406 5442 -5936 8613 7587 -9667 5440 1581 3347 8583 -5039 3512 -1062 0
3180 -4994 9093 -2599 -694 7182 -3151 -6538 8380 -275 5271 447 4449 8623 -1990 0
9955 7619 -9073 9800 -6641 1250 4475 6502 -5911 6619 9330 -5165 3761 9032 908 0
-4475 -4175 -5857 -6237 3293 8728 -1355 -2310 8398 -772 533 -6245 -6813 1946 -4140 0
8892 1588 -3031 6130 7222 2784 -1039 3509 -8187 6932 337 6592 193 -1505 -7708 0
8799 -1625 -7706 -6373 -898 -1339 8280 7253 8392 2500 -3280 -6948 -1600 7862 8576 0
4723 4575 635 4249 242 3416 -629 -5272 5132 -6337 -331 5965 -9741 201 8872 0
7826 -4307 -7971 -3532 -1960 -2193 4432 -7542 -5389 2450 2739 7507 9341 -4352 4781 0
7105 69 -5740 -4581 -4546 4472 8769 -8020 -6322 2793 9106 -8442 -4458 4769 1124 0
-8116 2949 9936 4302 8464 -1850 -7609 585 2306 1345 7770 -3293 6776 6407 -669 0
1560 3019 -2755 740 9766 344 8530 8327 5339 9009 -5424 -6575 -3969 -5645 4369 0
-5662 -5638 8031 2587 -7745 4751 -2683 -2709 8478 1634 1018 -1813 -8054 -9830 -9862 0
-9993 1254 -1847 6847 -8922 3695 1270 1042 -1265 985 -1866 -6245 2136 9760 117 0
-5119 9430 -2150 -6432 6884 -6681 -9132 -9499 -7557 7144 -5103 7931 199 -8873 404 0
-9856 844 4266 -8273 262 1891 -9946 6143 -8896 -7215 -1235 6586 4050 305 6371 0
8372 644 -5325 -4156 116 3014 2958 -8336 7181 -5368 2387 -7479 9453 2935 -915 0
7340 -5789 7555 9435 3960 -7639 -5067 3728 -5371 6548 482 -1668 9439 -9797 7928 0
-1728 3747 4428 8852 -8138 -5382 3616 -4190 -4468 -5795 -4918 -8563 -8026 339 -1601 0
8782 -6868 -8277 -6367 8494 3739 9189 -2331 4440 9326 -3620 -4950 -8966 -972 -9860 0
7124 6920 -9583 7975 2237 -8761 2038 -9395 -8484 1081 4531 -4302 -9384 1767 8875 0
-9380 2850 -3398 -8005 -2708 -5350 -2514 -4681 5622 -5677 2130 -7444 -8712 2132 7155 0
9932 -6223 -6328 -6931 1911 -9659 2885 -2263 -385 -8808 128 6712 -982 8379 300 0
9442 -1229 575 5718 4584 3724 5631 -3105 -4828 -9509 -1854 -8021 1933 9501 -2486 0
-1791 -2253 2161 -4715 -5834 -930 8641 -1903 9088 -2127 5078 6714 1757 -9980 2013 0
1382 -191 -9251 841 -2302 6771 4465 -5086 -7810 -3414 2601 8220 -4908 -8101 -2688 0
-2014 -3725 -6029 -3319 -2874 -3392 7079 -3625 -4391 9346 7510 534 7106 2808 -2504 0
1976 -8795 -319 3412 7506 -936 -1657 -5870 -2389 -9657 -1352 2390 3637 7832 8749 0
-4985 -8435 -1553 1672 8669 -6530 -4375 -8728 6707 -1153 8331 -7436 -5310 8455 5941 0
744 -7023 -5546 -2864 8843 -1669 2346 -2719 6761 7381 4850 5799 5316 4217 3886 0
5051 -1046 1876 1948 3222 337 -7511 -2598 -2423 -6623 908 -2026 -2781 -1382 2085 0
5728 4700 7101 -5685 -2556 -7974 -3605 -8771 -8920 3675 -1504 -1572 -5648 338 6566 0
4330 -3030 -8720 4851 -9259 -1564 -8795 2825 -2173 3514 -9018 -2436 -367 3537 2805 0
-5001 -4889 -9010 -3276 -7263 -7449 -8185 9437 -2042 2865 -5626 -9188 1194 5994 -3492 0
2738 -8624 5086 -8836 561 5563 3103 26 4346 3196 -6719 8104 4467 -9530 9454 0
4175 4982 4157 306 -5770 438 -2509 4793 -4592 8895 -8433 -1699 431 101 3067 0
2087 8192 -1884 -6641 -3689 8453 -2088 6233 2102 -5532 -8723 3752 -3112 -2807 1526 0
-3822 -2099 -436 393 8155 6365 9974 -4378 826 -279 -546 2201 -9465 -5320 2269 0
-6166 -2825 -3215 -3174 6718 -7255 4752 -6095 4436 -2611 7291 -7739 2746 1471 -6492 0
6552 3813 -2158 8252 5924 8796 9669 5207 -2710 -9762 -4973 4234 4799 9775 1155 0
-3133 5826 3860 -9711 -2815 -7025 -4817 -8435 338 -5352 -8128 4335 3153 -4356 1781 0
-5189 -4811 -8633 4466 9107 -9243 9405 2328 7174 3420 1656 4031 2086 -1713 1556 0
2576 259 8868 -6539 -4471 -1078 -2686 -9318 -4588 8558 6844 -2099 -5371 -1605 2135 0
9297 2329 -6850 3893 2403 48 -7964 -941 783 -9515 -553 -2897 8777 1578 2822 0
-3900 8573 8367 303 -3001 -5174 3287 5197 -4218 8807 7443 4663 244 -5912 -5150 0
2566 9591 6682 4181 -6538 5701 1523 -127 -7853 -7400 3080 -3704 -3207 -2299 9137 0
8249 1231 336 -5435 8468 2801 5369 8910 -4597 6418 726 1287 -3449 -655 -3964 0
2633 7798 7439 -1521 3339 1312 -6841 -8417 -1118 7625 9151 -4181 8570 -1260 -9209 0
3025 7696 -9939 -2694 9783 9767 -2028 -3686 93 -3321 2081 -1563 9556 -5714 -7751 0
-2680 6493 -3200 388 2317 1698 4129 6190 5634 9596 6399 -5799 -9041 164 3005 0
-2963 -1639 3432 -948 4126 3771 -9364 1912 3739 -3021 5590 -2129 -6316 -7436 -3348 0
-4790 -2764 6542 9709 4360 5877 -6848 1084 -9416 -452 -5321 8354 -9716 1728 1774 0
-7434 9673 9961 8759 -7150 4390 -6083 -6182 -4498 5068 -6590 -7154 -3241 -9192 -9890 0
3108 -8081 -961 6962 -573 7592 260 6158 1063 -632 3731 -1767 -1593 7677 1851 0
3467 -7193 -6254 6546 -7599 740 -9905 6509 -2220 -2708 -5399 -8795 -7030 6256 -7954 0
-1223 4777 2941 -345 7240 -1932 -8045 3700 2200 4425 5891 1486 -5597 -5406 -3106 0
204 -2455 -8990 -8098 6483 5222 1417 3490 5994 -8918 -6998 8759 -8642 2954 -3014 0
212 7289 -9624 113 2589 -931 -9057 7742 5779 -9962 7574 -3 -6599 6241 -332 0
7034 -2884 1002 -1964 -4552 1984 1507 3651 -9229 2392 9775 9255 7264 8065 -8944 0
-2308 -3589 -3783 -257 -5198 -5665 -5947 878 8917 -4423 2235 -6964 -5184 6226 -2575 0
-9517 5779 972 9000 -2962 -5616 -3849 -6816 -9645 2855 1671 -7030 1845 1709 3566 0
-1989 2837 6145 -3848 5946 -6032 3578 5979 6657 9501 2345 -2401 3274 8526 4386 0
-9077 -1970 4120 8723 -3663 -9644 3519 -3371 -845 2244 -4707 3230 -4274 -5487 -1461 0
5572 7272 -8187 1640 560 -4353 9243 2732 -8052 8266 3160 1195 -9134 -5489 4071 0
1807 8401 -7461 8797 -2167 3843 9604 -6961 8014 -4796 8539 8914 3234 4121 -8868 0
8758 6143 -8078 1593 -6241 5224 -4775 2269 8467 -2909 -9035 -5351 7792 6526 -7384 0
1136 -4684 -6060 7213 990 154 1413 6842 8526 -8808 450 -3391 -4031 7225 -352 0
1910 -1943 -6898 -6235 -8383 6673 299 5059 1809 -1451 8196 3478 2223 7225 8950 0
-7364 7093 -9870 8186 -2405 3391 -7039 3564 4990 -5346 -1616 136 6879 -6119 6185 0
7559 4078 6465 -7757 -7824 -2642 2138 -6908 1436 -6066 2552 1924 382 -41 7246 0
-3930 -3115 8508 -3973 -2673 -3311 -7734 -4951 2477 7402 -2621 1985 2885 7651 -9706 0
-3255 -2886 -497 4418 3664 -1719 -3313 4614 -9684 -6425 -8571 -6974 7616 -3491 -1070 0
-4532 -2748 -5081 -3674 2744 5959 5495 -1386 4879 9887 5985 -9875 1211 -5757 -8247 0
-7433 2031 -8415 -3811 -8785 -9356 -2815 1690 -486 -8191 6568 -6428 9004 -5585 -9894 0
-45 1373 6687 -2528 2574 5195 9390 7730 5345 -4244 -5807 -5811 -5745 4226 -2582 0
8512 6694 2868 3593 6283 -754 5775 -6763 4209 -4199 -3960 -30 1032 3961 -2360 0
431 8959 1766 5700 1769 4382 -9142 -5214 4164 -1885 -8830 6909 -220 -8264 1444 0
-4407 7842 3897 7577 7010 5774 3921 -2584 1590 -7227 -6689 -8478 -5386 -7536 -3376 0
-6010 -92 5736 9096 3202 4025 -9743 -943 53 3408 -5902 -2234 -3323 -5777 -9998 0
-6751 1897 -3799 5257 3534 5269 -2956 9238 1345 3241 6019 8943 2578 9696 -3122 0
1219 9682 -5128 -1468 -9785 9566 -8520 3230 -2913 354 4799 -7222 -6036 7716 -3888 0
-9211 -3147 -7586 3708 3098 -2306 -9776 -5315 6740 8743 -5583 -2496 -1478 4523 2405 0
8174 5743 -568 -2265 5294 5207 -1036 6245 72 -1451 -1786 452 8447 -6046 -884 0
-3047 2259 -238 -6309 9106 -5759 5199 -8202 2331 4336 -9337 -8981 1331 -7417 -2275 0
-5928 -2644 3702 5370 -442 1448 6435 -9601 -4119 4570 6538 -9390 -5118 7194 -753 0
7452 -6277 2210 5058 -1201 6753 5048 -5652 -3847 8986 -6028 -8446 9975 1522 2964 0
-4903 8870 -8531 690 -8865 -8573 -2609 -1246 -2249 4430 6367 94 4305 8967 9433 0
-8529 -2794 7447 7347 -6582 -8242 2396 -1346 -7595 -9166 -9899 3391 -7898 -5957 5741 0
-5897 4208 4013 -2589 -3580 9415 8014 7092 -1358 8403 -8762 146 -5087 6558 -1090 0
-1911 -4427 9686 -2326 9319 3664 -293 -1303 -3155 2568 -9480 2367 -5215 9891 2490 0
-9021 4452 -4949 -9871 2763 8052 4423 -5194 -1815 -9218 -1543 2993 6290 7855 -5925 0
-6721 7232 -1765 -3114 1648 -8031 2630 1902 -8103 -7967 -783 993 1789 -345 453 0
-983 982 3388 3 3525 -9755 5242 -1342 -4867 6415 1314 4623 6738 -4761 -488 0
-7756 4626 -5721 7108 6770 -2572 6985 -8746 4234 -2978 5375 2132 1629 -9360 -4793 0
-2114 8646 -9057 -2540 -5920 7954 -5675 5852 -5891 7266 -4780 9740 8818 -6427 6396 0
6212 6400 -6510 687 -6303 2316 6688 -3584 8490 4729 6252 2456 4014 5823 8159 0
-567 -8242 200 -9514 6624 97 -1513 -3921 -8400 -8752 -3623 -2005 4718 7254 -999 0
-3660 -531 4705 -5953 5444 9947 -1510 3620 4485 5113 4697 -1493 3996 6244 -1507 0
-5240 -2330 -933 4450 9449 5514 -8992 6163 -3109 -3479 -5945 -9188 -8429 -7745 -177 0
2704 -9402 -1015 1216 562 -7728 7442 -9608 -1669 7646 -1992 -577 -7411 7477 -20 0
5971 9751 792 -2936 -6060 -7213 -2716 -403 2010 4368 -5913 -1322 -3811 1338 2058 0
2319 -1077 1424 -1718 9645 -2268 3463 9583 648 -8640 5904 -4322 -4039 -2389 8805 0
-614 -1202 -4410 8012 -1787 6391 8355 -706 1383 -245 -7177 -8241 3413 5030 1477 0
-4723 -3882 -681 340 -9995 -6437 8923 8760 -6848 9042 3951 3307 2632 7420 -4066 0
6312 7393 -2856 -5340 6961 -4889 -6710 -8968 -9045 -6929 -2902 -8748 7648 1329 8991 0
-5302 -160 -9344 -2452 -2755 1749 -6012 2601 -4997 923 -8318 4906 7970 2583 9959 0
-379 9555 2674 7971 1629 4159 6502 -7782 -3123 2092 3906 1718 830 -9067 -4295 0
6310 2406 9272 3926 -5551 8126 -554 3501 -3831 -3386 4777 4034 -9433 9208 -6123 0
-216 339 -3083 1478 -5635 9241 9275 -1119 9240 8107 -3151 -9054 -8697 8019 -466 0
8987 -1199 5507 698 -8937 5941 -6618 2795 -3149 9357 8155 1026 2675 -1002 4359 0
-2789 357 7 5299 -8163 -3585 -9500 -3334 -7191 105 2226 -7662 5195 -1351 2926 0
-1980 7889 421 1681 -9669 -5385 -7470 -9555 -9006 -787 -2371 -690 -6644 -701 -2188 0
2009 -6228 -7572 -9793 -2385 5689 -9031 188 -3554 6890 206 -1827 8084 7511 -4685 0
-5496 -3805 -5707 -6464 -3153 4971 -9731 -4147 1343 -4522 -693 -8304 -4815 7270 5952 0
4181 -9159 1185 6588 3607 -631 8586 -2304 9196 -7856 -929 2596 -3292 -9533 6074 0
-2581 -61 1957 -5332 5331 -1682 -1671 -6676 -3437 -9058 -8296 7041 -4732 -8798 -3525 0
1765 559 8408 -4115 -7682 5614 -2163 -6869 -4230 2128 -3979 -7522 4999 729 4685 0
-5525 8484 -3823 9767 5184 9238 -2664 6978 -9685 6497 5884 -4830 5664 -899 6457 0
-7352 -6739 4757 -7089 4108 -7895 719 -317 -9252 -5067 -42 -3962 3729 -544 -212 0
-2431 -8963 7481 9939 -1916 -1733 -244 -3741 2333 465 4370 1985 -2805 -8309 -5771 0
9241 -9272 -6053 -5344 -3065 815 -7597 -9264 -6173 -3912 -271 -8238 -7794 -2005 -7054 0
1197 4857 -3823 -7424 4550 -2546 -6367 -8650 -1258 -673 2566 1044 2363 5571 6152 0
-3116 1788 -8008 3865 -5200 8075 -9370 2355 1685 -1463 2823 2260 -5547 1504 8502 0
-5481 -6333 5682 -2738 -4745 -6473 1561 -428 5568 3174 1266 -1237 -8879 7238 -3659 0
-7900 -8796 8165 8224 -3127 4660 -1251 8366 9774 4057 4930 -6601 3108 -3040 -7956 0
-6013 1896 3938 54 622 2435 9771 8712 -8885 -3558 -2371 332 -2866 -9659 -9368 0
-7717 -5816 2335 -3556 -1738 -9665 3320 164 6569 -9019 9816 -9877 8417 1012 3855 0
4988 -3066 3291 1036 1675 8022 -318 5168 -1375 -1648 -8208 -914 2052 8824 -4425 0
427 -2364 9251 4288 -3408 190 -9013 4919 8929 3815 1516 -9518 9146 16 8954 0
6012 -8162 -3387 7849 -4182 3108 -9821 -7251 -4307 -9453 5207 -5063 -6386 -4533 -5850 0
-2369 6585 3842 757 -9827 -5186 484 6901 -9187 -522 -2493 6023 3250 2606 1473 0
126 -547 -7370 6954 7839 8686 -9928 -2510 4269 8096 -7890 8792 -4848 9352 -8948 0
-7366 -104 -2955 -5945 -6057 -1650 -6936 -7400 -4545 -7663 7517 4290 6795 -2598 -1354 0
5016 2317 -6845 -3009 3788 8456 306 -5368 -6278 -5433 -6075 -3777 -8597 6401 7829 0
-5642 -6521 -4287 -29 9714 -3167 -3037 1317 8794 7926 7561 7696 -3876 -100 9271 0
2191 -6526 9728 -5270 -700 4990 9053 -2368 -2361 7338 -789 2877 1313 -6197 -3292 0
-7568 7880 -858 -6611 -1515 -2857 -2102 3927 1712 -1171 9509 -7337 4709 -3095 -1073 0
3539 4678 -2151 -3737 1156 1327 -6855 3290 -1883 159 5547 4342 -5096 695 9628 0
1357 -4817 3815 -4519 7465 -2828 -1155 1228 3424 3325 -8350 7328 1642 7236 9280 0
4735 8727 5919 8306 3025 1665 7000 -664 -7425 4903 5114 -5024 8051 -5764 9548 0
-8084 353 3697 2320 -9569 5642 -2850 -7782 -2423 -9825 1660 4597 -2929 905 -9610 0
3090 7573 -379 1137 -2570 6960 -412 6221 -3017 -3399 746 9048 9300 2450 3111 0
-8062 7916 -1175 -6184 -886 -7403 -1386 -7327 -6891 3406 -9669 -5400 3753 -8202 -1952 0
5123 -6715 -5188 7252 -2062 -5868 4460 3894 1258 2982 8011 -3466 6434 -8960 -9949 0
814 -6780 6389 -8343 6412 9393 3255 -9473 5321 9084 2736 -5611 -9311 -8533 -987 0
-9784 -8996 -8755 -2551 9081 -5310 2696 7584 6463 -3505 9919 7644 -2495 763 -5068 0
-20 -9228 6601 -3324 5601 -8487 -6088 -7426 8829 -6256 435 3227 6444 -6302 8588 0
4876 4233 1494 5875 8085 5422 -5667 -5651 2778 -5616 -6849 -8149 -1137 2769 8205 0
1931 2960 -8558 -7940 -6173 -1811 5487 394 5297 8646 -7301 213 212 7269 -6530 0
-755 9898 109 3297 -805 2992 -1230 -8250 6842 -9233 -9577 -7317 9334 -7089 2692 0
1328 -7331 7734 -2599 7470 -5453 -301 3799 -1169 -3147 -4714 -7360 9605 -7567 4726 0
-3769 7993 -9233 7599 -128 8317 1384 8202 -5433 -5640 -482 7680 -1997 2419 9291 0
-3938 3952 2575 -6360 7713 9160 5575 -1931 -849 -751 -451 -9467 2761 -1274 -1576 0
-4793 1787 6558 9440 8678 4007 -2605 -3280 8347 4045 1701 -3327 7268 4073 1614 0
5052 4191 2953 7856 3165 8757 -4598 145 8802 8110 6863 -2557 7553 -8127 -99 0
5887 4778 5202 -1871 -5943 9848 -4654 5213 -8532 -2101 -5159 -2860 -5532 1683 3889 0
-100 4788 6701 1371 5108 609 5883 -1860 3732 6302 804 -1102 -8865 -5360 6853 0
7006 -9443 -6448 9498 -3600 -3333 3365 1086 -5463 -6164 -1323 5952 -3469 -1639 -8243 0
-4150 -31 8630 1635 8464 1553 -4526 1077 -841 5648 4452 6569 -8829 7951 -7647 0
-7174 -1932 7714 3376 -2088 2223 7808 7929 -6011 3053 -4226 8120 -6709 3162 1693 0
-78 -5887 -4236 -4008 2372 -688 3314 8654 1984 -9465 -4469 2878 9491 6155 -7429 0
2372 -8778 -2820 -4997 -8761 -6395 -2664 -7408 -9412 -4053 -5411 -6251 3005 -4756 -2271 0
-544 -7308 5417 -1370 1157 -1054 7848 2487 -1207 4769 -2871 -1830 8591 -6826 9174 0
4995 -1703 -4838 9685 -6191 9728 6631 2248 2212 5443 -62 3418 -6480 7099 3741 0
6522 -748 -4852 3997 -1778 -1351 -357 5197 -4667 8955 6955 -3352 4685 -8058 -3693 0
-6861 -1166 -3580 8185 7374 6338 -5474 2898 2285 9395 -7248 2971 956 -7013 7556 0
-8214 4243 1371 -2779 6285 5691 -2924 -6954 -5280 5541 7407 -3789 -1131 -6213 4001 0
-2207 -6318 8802 120 -1672 4261 -3705 3964 -5721 3374 6161 -5272 6519 8011 -3800 0
-8807 -9445 6793 6454 -7946 4628 -8911 7836 1133 -7479 -1138 -1121 1360 -8964 5402 0
-4965 3902 -9419 -6730 3670 -8843 6940 1928 2265 -2824 -3985 2173 -1707 -5543 1540 0
5499 -5360 -8105 -9792 765 -5796 -4214 1430 4721 4868 -2582 -7452 -1125 -8047 3876 0
-8820 2094 2884 6882 2406 -9760 6211 -2207 -8741 949 7962 8288 524 3736 -339 0
8727 3753 2844 4445 -5232 -8709 -3018 2344 2911 5302 1278 -1547 9450 -6905 9298 0
6893 6427 650 -5271 -4256 -6557 3633 2454 -7495 3190 -6225 -4155 -7430 6555 -5681 0
-7505 -8161 -2864 -5700 -1556 -7058 8151 -2848 9716 -1770 -4771 4588 2931 -7984 -5106 0
-7636 2869 356 -2369 7255 -8112 -9477 5302 443 7412 2251 9238 -1761 2732 -5125 0
-8886 6345 8334 -982 5677 5957 8495 8938 -6356 -7517 -9902 -9164 -7221 2798 -5692 0
-845 -3462 -8628 7429 5331 -5602 8784 4320 -3246 8944 9147 2644 -4283 -2719 2620 0
5692 -1233 -408 -21 -1915 5349 1761 3795 -7487 -570 9301 -277 6075 -3413 3778 0
-9785 -3826 -7798 -4400 2852 3126 3377 391 -2530 5603 -2393 3642 9030 -8903 7241 0
-531 -2906 -8467 3523 9676 -8664 4776 -9525 -8216 6078 8946 552 2037 5553 -20 0
1914 2175 -5768 -6652 -4733 -4948 3969 2792 -544 8289 6103 2505 6426 -6221 -4007 0
8329 5911 -9398 -6878 6717 9926 -4790 -3276 -3182 -215 4844 -6553 -7083 2162 -9781 0
3084 1718 807 8549 -7869 -1270 -5074 8010 -4377 6596 6367 -2255 8982 5873 6285 0
-4808 1358 4592 2383 4899 -9445 -3038 5369 5562 4646 -843 5486 8632 7364 5157 0
3390 -5614 412 4050 -871 -4519 -4526 -7516 1084 -322 3609 -9689 9953 -1379 -7528 0
-6428 -6377 -8068 3433 -8237 -5616 76 -1979 -5311 -475 -8691 2553 -8435 6139 -720 0
2400 -2982 6646 -1613 1857 -4067 1565 -3882 7624 7331 -8982 6676 -2380 8976 7235 0
-2258 1036 -2341 -4199 -3099 -76 -2186 -3400 8275 4926 -6636 -3285 4977 -5416 405 0
9440 -7112 9030 -4189 9106 2215 4660 7447 8175 -2494 6656 7791 -5645 4574 5062 0
5663 -2103 -4067 7197 9341 5976 6841 -5664 -9533 7836 -9056 2715 564 -9939 -4001 0
4190 365 571 -9661 -8127 -1455 -8007 -2344 9368 4710 -2604 -7874 6085 1995 7953 0
-429 -8280 -1915 -7727 3292 -8136 8637 8783 5905 -6748 -8182 4203 2903 4259 7778 0
4216 -1385 8196 6722 9767 -3 -7685 -7942 7767 4467 -6364 -8536 -2994 9180 8641 0
-2831 8434 2372 2211 -3912 -4775 -8525 -5694 9772 -8061 -9737 -8327 -9310 -4697 8972 0
9168 -8863 -1045 9877 2463 -5614 6675 -2692 2621 -6408 -8083 5491 9973 6716 8423 0
8815 -4384 -8921 -3998 4823 -9844 -9277 7458 -9442 5324 4855 9078 -9412 -9914 -2570 0
3210 -2721 -9776 3546 9507 -5908 -7125 -5019 9293 8646 4383 -8321 3459 6016 1851 0
3624 -5491 2347 8673 2994 8107 -6601 69 -7173 -8939 -2775 -7739 -4251 6274 3192 0
-9420 257 -1591 3295 6482 449 -4100 9793 -3432 -2967 5363 5945 -3188 -6161 -5850 0
3023 8619 2229 -5791 -4162 -4177 -5690 2945 -8762 5538 -5030 1806 7771 7653 4652 0
203 5601 -3956 -9229 5955 -771 5020 -9547 -2901 2782 2546 -9827 5494 -5700 -5344 0
2832 -8835 -5250 -6783 -8578 9507 -7526 1563 4386 9567 6282 -7376 -3480 -2039 -8128 0
4770 -7774 -3061 -7361 -4983 3348 -2810 -7067 -4904 214 6404 -6027 -4545 5674 -9618 0
1762 -8538 -106 -884 6093 -9398 5330 -2720 2394 7253 8446 46 -5870 8335 4893 0
-7913 -8388 -1007 4500 -753 6292 2454 3237 -8164 -6210 -5650 7644 2180 3957 8121 0
-1154 -790 -8318 7068 -6581 8873 1577 8356 -5853 -1718 2824 -7120 5417 9656 1441 0
7254 -2433 -3903 9923 3750 -5841 3218 -4158 810 -7889 8935 3187 1959 1227 -9168 0
-2216 1140 6923 -6418 3800 -6438 7686 4325 -8049 5765 -9595 968 6035 6920 -6081 0
4186 -9139 -5945 -1976 4127 -8975 7653 -9228 8921 9 -9546 6649 6089 5379 -8631 0
9309 -7132 2617 -5933 -9243 8706 2117 6802 4232 4522 -3183 -5745 -87 1918 9036 0
486 -5003 -1777 6304 2731 8961 -4093 -7565 -6582 9587 5321 1448 -7182 -8805 886 0
-9467 -1041 -3917 6629 -9104 -1291 6897 7187 -5215 -1622 7538 -6233 -6170 3579 5389 0
-3322 -114 -7658 -2062 4192 854 7585 5302 1000 6801 -3353 -2666 -2487 8662 8331 0
-1945 5781 7454 -3732 -7482 -4511 -5461 -511 1671 7456 4547 9801 -3262 4551 -5513 0
-6542 2474 -5845 4411 9249 -3517 -9125 9541 7063 350 26 -5294 -3602 4545 617 0
7004 2137 7012 -5281 -1239 -7620 664 2928 9787 -4652 -7937 -7774 1584 -508 9422 0
-2598 -7048 -4840 5140 -2069 5872 -5598 7490 -533 6950 3761 4342 3089 -6700 1308 0
-925 2741 -2969 4254 -6772 -1115 -8495 -534 2726 131 -2116 3179 -1354 -8003 8902 0
-4027 2151 -7466 9859 -6560 -9641 4052 -698 -1816 -1276 -7435 3084 9516 -1323 -6662 0
-6114 1945 -1980 9715 -7396 4733 1839 -8044 5303 2993 -771 -8964 2167 9905 2542 0
-4732 2500 1019 7853 -1261 5959 -2008 5463 3942 5580 4781 4438 -3156 -7378 -5001 0
-3467 5418 -9249 -6264 -423 6040 -3047 1236 -4171 -3187 -5253 -7605 486 1479 -6074 0
2786 5608 -1763 -6753 4006 -8655 9227 5173 3036 -7127 3499 7830 9986 -8223 3831 0
-9886 7885 -8264 2183 9934 -3174 -2804 3816 8540 8986 5473 -8360 -1302 -1429 6753 0
2446 -1558 -1618 169 -7791 -3224 -8656 -9728 1761 36 -5605 1574 -5632 -9556 -3290 0
8275 4420 7260 6629 -4413 9712 8879 5122 -9599 7703 -5641 5993 -3015 677 -9268 0
4350 -5461 7065 5078 6769 -3106 -1033 389 -5944 4166 -767 -8679 -4409 -6877 1655 0
-2121 -7869 2836 5636 -4496 5968 5675 4912 3492 8651 7268 -9061 5223 -6572 6786 0
-3355 -7475 -4643 -3111 3336 297 8997 1322 4073 -9991 -6928 6742 354 -5525 3195 0
6446 -8991 4017 7751 -7600 -930 -6403 2197 -9929 -3022 -9622 2732 -9090 -5686 9477 0
8096 1160 -2876 -471 5368 5060 -130 -7891 -1945 9182 -3727 9477 4778 4027 8455 0
195 4028 -7909 -7458 -5373 380 3795 -1762 5413 -6384 -1769 5310 -9262 3962 1264 0
8194 3156 -2691 2074 5852 7147 -2291 -6666 8685 2779 -6952 8735 2021 1983 727 0
3211 1481 3036 -8748 2613 -2177 2156 9823 -6329 5745 -4191 -8430 -7330 6669 -9772 0
-2991 477 -2345 -6207 2196 2133 3338 -9656 -678 -393 -5718 2405 2871 1100 1457 0
-4131 -890 -7415 6419 -7534 -5188 1845 -1485 -7133 -5654 -1507 621 6971 159 -6337 0
-612 -8481 -8461 8159 -2397 -8672 -5003 -7183 -7599 4231 -48 4213 948 4015 -7323 0
-1135 -9216 -6787 -3506 4638 3953 -242 -7208 -2752 -9804 -5087 2011 -8698 -8823 1530 0
5482 -8329 -5623 -5934 5541 -2901 -2865 -468 -5786 7782 3203 2995 -29 7217 -6245 0
-1957 2909 3233 -8453 8755 -5135 9208 -9130 -4007 -6173 -7920 -5775 -6293 7437 -265 0
8088 -6375 -6023 5159 5678 3955 4934 3766 2112 -4727 9419 -5706 -8098 9793 -2833 0
3632 -1073 382 -4176 -7514 -5201 1263 -8335 407 -9318 -9158 432 -27 2030 -2403 0
-4070 -4302 -9495 708 3216 3366 5450 -813 -9925 -6843 -4446 -1190 4105 -5515 -2983 0
-4779 -5880 397 -2242 5299 5261 -5628 943 -5629 -5796 2703 -3518 4785 5343 6578 0
4420 1208 5917 -299 -2950 -4957 -1402 -1893 -551 9047 -228 -2963 8678 1979 6633 0
5947 8680 -9256 5755 2730 7047 -3539 8282 -5483 -8148 2360 -7043 225 262 -6269 0
1797 -5929 -1528 -2315 2894 -8637 9336 8293 3977 9230 -2989 9638 -1990 2113 -3493 0
-8287 -8419 -7606 -6205 -3217 4792 -9798 5770 3400 -307 -713 9242 6382 -5175 1129 0
-9011 6666 4228 -836 -3648 -7805 2332 9428 -2022 -2932 -4545 6246 6324 -1211 4934 0
-3037 -273 4012 8461 -9407 -510 -7040 -3131 7307 3667 -460 9802 -2873 3143 1952 0
9706 3828 4276 -7219 161 7068 3070 -1362 -6541 -5964 5143 -4319 3309 7871 -3732 0
-9330 -6830 1631 4586 -418 7062 9733 -5979 -175 -8058 -8042 2059 -2528 2983 -5185 0
-574 -3541 -2535 7609 8352 -4848 1146 4620 -2088 1167 229 7928 539 -5939 -2996 0
-9050 -7244 4594 2384 8402 -4917 -4069 8031 3218 -8941 -1499 5280 -3396 5442 -4165 0
7923 -9662 -4437 8935 1580 -265 2450 -2178 5895 -7290 -1161 -5159 8458 8613 -1499 0
8118 -1 7803 -551 9706 -9895 -1883 9910 3024 4860 -1540 -1739 5475 -3632 1232 0
6404 -3796 -568 1176 -9394 -8719 3987 -9618 -832 30 3413 7341 -5770 5424 8411 0
8364 -8615 -292 792 5440 9965 -6439 -7853 9786 -4971 8110 -8140 -8352 -8846 -489 0
3228 9493 8983 -3338 -1366 1110 9522 3328 3778 -6778 9606 3508 -7125 742 488 0
5957 9318 1405 -4195 8705 8420 452 -1806 -4649 -829 -8530 -60 -7223 -5242 8147 0
5086 -5464 -4566 254 8446 1340 1616 -3176 -4330 -9179 -777 4895 -3910 7720 -3116 0
-1214 -6224 -9061 3111 -4386 -9250 -426 -8624 8595 -6640 3518 5353 8086 -1264 461 0
845 241 -6 -5303 8672 -8552 -7490 -480 -1969 -6471 -5819 9283 7614 486 8707 0
4032 -7231 -8199 4054 2896 9984 4605 -4842 26 -768 -2557 -1315 2129 1131 -5625 0
1632 -5409 1115 -1875 2553 164 5044 -7617 1100 -1289 -6038 9877 -1807 3098 5960 0
-8495 3628 6385 -1007 8281 -9815 -7105 -6351 -8606 -3600 2822 7462 -832 9467 6167 0
-9482 -3552 7287 5733 -4977 5286 8130 6777 8705 -6500 470 6966 7888 9732 4141 0
-5214 6418 -5498 4811 8996 7175 -9696 8095 138 425 8960 -851 6830 -4920 -4445 0
6311 -7809 234 9747 -9139 -4464 1239 -8989 -6057 -4574 -5368 -434 -6817 6745 7421 0
-6154 9178 -4584 8087 9722 4077 -848 -800 -1455 8853 -8717 -396 517 -9820 -6329 0
7407 -2708 8960 -4602 -438 8729 -9039 5214 -3900 2191 2675 545 -2812 5294 3007 0
6168 8201 2204 9016 -3106 36 -7176 -8792 -879 -123 7938 687 -4620 409 -9784 0
7216 5779 -9414 675 -1295 4392 -5725 5744 3508 572 -2767 8291 -8519 -1800 7279 0
2750 8658 -2343 -3801 -3220 2860 -7317 -7836 7584 -6259 -4440 -9667 5444 8902 -3414 0
6951 -8 4518 -5966 -272 -8507 2307 416 6227 1468 -3661 -2634 -7656 596 -5814 0
-4483 -1793 7070 8899 8597 3862 4481 -7255 5239 9248 1853 -8543 2670 9774 -3153 0
-5036 -9464 9273 -6394 -7873 821 -5072 3521 542 -2752 4826 3890 2011 -9691 495 0
2109 -4975 3941 -1359 3433 -7885 708 5879 192 1883 9236 -3609 2635 6544 7630 0
-7034 5347 -1910 4702 5075 -3846 1830 9562 2551 1085 -5276 9391 6899 1432 -5389 0
5270 -8721 -6356 -535 -2942 -479 7626 -5784 -6812 8911 -5391 7198 7422 7652 5029 0
-9690 4197 4949 9834 -4696 2648 -1596 6724 -3501 -9029 9094 2977 -7766 7340 -7559 0
9420 -7710 1876 -9627 -1664 1533 6153 7267 -4928 -7239 -2266 -2654 -450 -7191 695 0
3560 -5571 -2690 3957 2249 -9130 -6927 -8116 -1082 9837 -6114 -7763 -4665 1760 7052 0
856 4577 -9093 -22 -9177 -5963 8071 -2987 -4544 9375 3868 5372 8701 -3184 -615 0
-6869 -1231 2443 2316 1110 -7544 -5274 -7983 3113 -8055 -1775 8655 -1419 -4963 3714 0
2571 -4383 1211 -9183 -8938 6854 -4468 -5916 5780 3621 -3741 1759 -9866 -6862 2960 0
3640 -2636 2294 2197 3415 -1567 3707 2089 -1943 7749 495 -2007 4619 9050 7988 0
-2300 -2534 -1895 1928 1556 7019 9624 5591 -8228 -4937 -4726 -6968 -388 3840 -6044 0
-8837 -9690 -665 -9593 3041 -4317 -7701 -3079 9740 5901 -2321 2543 6327 7928 -4480 0
6371 1909 8911 9073 8605 7435 2359 -5132 7562 -9116 7904 9753 7479 -7593 -9566 0
7684 -1109 -2451 -2419 11 561 -7998 -9525 352 -4953 3393 -4146 -1361 -2201 2735 0
-3337 -7434 4658 3451 -6275 8099 -830 -6635 -6229 3650 -1351 2905 2961 3628 -9802 0
2102 -5594 3806 -2373 -3357 9683 8078 -2430 4075 -5129 -6336 -7552 -6184 -8052 2805 0
