c Random CNF formula
p cnf 100 400
-22 -54 89 0
61 -66 -24 0
-48 75 -55 0
-30 89 6 0
-53 -79 -57 0
-15 84 -48 0
3 -59 -21 0
-24 86 -5 0
26 27 87 0
-98 75 94 0
50 26 -44 0
-47 58 -65 0
4 12 -21 0
63 9 71 0
-41 72 80 0
43 -45 -98 0
-9 -23 -100 0
-67 85 31 0
-76 -2 -45 0
-32 21 72 0
-62 -8 -37 0
-54 32 22 0
19 -20 -96 0
-84 68 94 0
47 -20 48 0
62 -40 18 0
-2 49 -88 0
42 83 -32 0
-52 -97 -18 0
4 -83 -58 0
37 -17 -39 0
-29 80 -22 0
-96 71 97 0
-100 8 -2 0
-73 23 92 0
-96 -6 32 0
-38 65 71 0
8 66 -77 0
90 -80 68 0
-42 26 -46 0
10 84 -81 0
80 -3 88 0
-50 -52 -10 0
32 -36 -91 0
-31 -52 50 0
-84 -11 5 0
28 100 58 0
-78 -90 -88 0
40 79 49 0
-1 21 41 0
-12 -71 23 0
96 -60 -14 0
87 43 -48 0
-4 42 -66 0
-88 65 26 0
-21 -51 60 0
86 -23 50 0
28 5 45 0
3 -10 -65 0
58 -31 1 0
25 -59 -48 0
-56 -68 7 0
32 29 74 0
-3 -85 75 0
-98 -85 25 0
-69 80 -63 0
-35 20 -46 0
-10 -86 9 0
-47 -35 -46 0
-88 -84 52 0
-69 -33 53 0
55 -11 -42 0
46 78 -69 0
-48 64 62 0
-36 87 8 0
69 -78 15 0
90 -47 -2 0
4 -97 49 0
-69 65 53 0
100 58 95 0
-31 52 77 0
47 74 17 0
97 4 -86 0
69 67 -48 0
31 -85 -55 0
-25 -84 -28 0
-63 62 -34 0
44 76 57 0
-21 -49 19 0
75 -38 -74 0
-94 -71 -98 0
-17 -64 43 0
-77 -92 -89 0
84 33 94 0
26 -77 -43 0
82 17 -19 0
-79 -38 -83 0
-92 64 28 0
-67 -48 -2 0
-90 53 8 0
3 -93 30 0
71 48 -56 0
-45 52 97 0
76 -29 57 0
59 29 -100 0
-63 -20 22 0
-39 -28 -7 0
21 -20 29 0
81 -52 16 0
69 -3 11 0
32 27 56 0
-85 -2 52 0
46 -54 -5 0
-75 62 24 0
33 100 -61 0
-44 -48 85 0
-38 -7 -15 0
-18 -97 -93 0
85 -87 57 0
-55 66 -89 0
-47 93 26 0
56 -24 -99 0
5 -28 22 0
-30 -84 58 0
25 36 90 0
-62 19 43 0
37 87 97 0
8 -32 -93 0
-22 93 51 0
28 79 99 0
-27 49 25 0
-22 84 56 0
-67 -50 -7 0
-59 -15 -98 0
-23 -66 75 0
53 99 -51 0
1 90 -53 0
-81 -41 90 0
-84 -81 -46 0
-21 1 44 0
65 -4 6 0
71 30 -17 0
-98 26 -13 0
-42 28 94 0
-96 -94 -6 0
56 -99 25 0
60 59 -92 0
79 57 -7 0
92 72 63 0
16 -79 -2 0
-19 93 82 0
-57 12 74 0
-57 63 96 0
29 -39 9 0
-84 -41 72 0
15 48 69 0
-31 59 -44 0
71 61 -36 0
-79 -76 -96 0
-34 27 86 0
-22 13 -93 0
-77 -69 35 0
83 81 -15 0
-69 22 90 0
82 31 56 0
51 -34 -80 0
-38 49 54 0
93 -81 86 0
-30 -8 -86 0
-55 -66 8 0
24 14 -43 0
75 23 41 0
11 -5 7 0
77 -24 -22 0
-6 22 19 0
58 -22 -52 0
86 -27 -83 0
44 6 -15 0
-52 94 62 0
7 97 -99 0
-46 67 -64 0
53 84 58 0
8 -53 32 0
-91 -74 34 0
72 55 30 0
-49 44 -25 0
-37 88 58 0
9 86 -16 0
-55 -43 50 0
18 -23 -70 0
52 68 -71 0
-67 97 19 0
-92 -64 -25 0
27 -3 -22 0
51 77 90 0
37 12 75 0
5 -89 -97 0
-50 55 45 0
35 -4 3 0
-71 76 50 0
11 75 -35 0
41 -40 24 0
22 73 -5 0
79 67 -29 0
89 -82 -12 0
33 10 -63 0
-69 -86 -44 0
83 -82 51 0
-62 -34 -10 0
-83 85 74 0
-26 47 -62 0
45 -37 -54 0
-48 27 -77 0
-71 -5 35 0
53 -29 83 0
96 78 -7 0
87 -55 59 0
-56 88 83 0
-70 6 44 0
-55 -41 34 0
-34 32 -40 0
43 -60 94 0
56 -46 89 0
24 -78 32 0
-49 -22 -10 0
73 38 -71 0
-41 11 26 0
-67 8 42 0
-77 82 -3 0
58 15 98 0
4 27 -31 0
-79 -88 -51 0
-73 11 -87 0
-88 56 76 0
8 -73 94 0
40 100 80 0
-66 -13 -39 0
92 76 -34 0
-83 -6 -56 0
-62 -82 89 0
69 45 -50 0
-5 40 29 0
-48 2 -20 0
-93 -89 -85 0
-51 -14 19 0
17 -59 -82 0
-58 73 -21 0
56 11 37 0
-10 28 47 0
-24 -62 -37 0
99 -20 56 0
-71 -35 -25 0
-21 81 -30 0
93 59 16 0
-39 -80 16 0
-13 9 -30 0
-6 60 97 0
79 -66 16 0
57 1 46 0
-59 17 -56 0
-67 -60 -26 0
18 -32 20 0
-73 -50 65 0
32 -53 -73 0
46 59 30 0
-86 -99 63 0
50 81 -2 0
-24 -38 90 0
19 90 -32 0
-50 -93 67 0
-89 54 -60 0
-42 5 -66 0
-11 -9 31 0
5 63 92 0
52 54 -56 0
-80 14 73 0
-80 -32 -64 0
-92 -10 -54 0
32 42 66 0
-20 70 -9 0
-70 -20 14 0
-12 11 -77 0
97 -22 100 0
13 -95 67 0
61 -30 31 0
37 -63 -91 0
84 78 74 0
86 -44 35 0
71 64 -6 0
43 -69 -11 0
-67 70 -16 0
-31 -82 38 0
-76 3 -24 0
50 -24 11 0
-74 54 -23 0
39 -12 -51 0
14 -31 -7 0
-79 46 10 0
-46 10 23 0
-72 9 -37 0
-18 61 83 0
-18 71 -13 0
-29 14 -90 0
50 -80 85 0
49 -35 4 0
-7 56 -38 0
-99 -98 79 0
60 98 24 0
-60 41 82 0
81 -75 -54 0
-15 29 -36 0
8 83 72 0
-49 -11 99 0
-22 24 92 0
-82 75 -48 0
88 -16 48 0
55 -57 -66 0
74 -4 95 0
-92 -15 22 0
57 23 -47 0
49 48 -17 0
-77 13 46 0
-75 -55 77 0
-77 -25 -10 0
62 84 -29 0
57 96 90 0
10 -4 -27 0
-27 -54 -50 0
-30 -71 81 0
34 -36 76 0
-97 20 -76 0
-67 42 23 0
81 4 -69 0
-94 21 62 0
-16 -68 94 0
96 74 -91 0
85 97 79 0
61 64 -8 0
93 90 100 0
-56 -21 -44 0
-67 71 21 0
95 67 58 0
-52 -76 -65 0
32 -44 -25 0
22 95 -49 0
89 40 12 0
62 -67 -91 0
-25 40 -80 0
88 91 -8 0
-63 -76 49 0
98 62 15 0
-26 -40 24 0
-80 29 -82 0
-68 25 -35 0
-9 -65 -48 0
17 -32 -23 0
27 96 55 0
-67 15 47 0
-98 -93 57 0
-8 -90 3 0
-59 77 -53 0
-30 -44 -43 0
11 51 -82 0
88 99 26 0
-13 96 -1 0
-39 12 -48 0
-90 -2 -6 0
-62 38 -27 0
70 83 -6 0
-51 -96 37 0
-41 29 85 0
-16 97 68 0
-22 68 -14 0
-7 -58 -94 0
61 -86 -56 0
42 34 -91 0
-72 55 -48 0
69 -14 -74 0
-53 -62 83 0
-100 -31 -35 0
48 -36 77 0
-78 -21 -74 0
19 -34 -61 0
-6 54 93 0
75 -49 10 0
10 11 33 0
-57 -77 -17 0
94 -62 -34 0
30 -10 16 0
-3 89 -80 0
48 97 11 0
55 -78 -20 0
97 2 -22 0
-33 -73 -35 0
-99 68 22 0
20 50 -11 0
-66 71 27 0
-73 80 63 0
-6 -89 -97 0
-7 -71 -81 0
