c Random CNF formula
p cnf 100 400
54 -37 66 0
-71 -44 82 0
60 34 -26 0
15 -21 68 0
-16 18 -89 0
-30 -82 -51 0
-3 -100 43 0
-2 -23 95 0
2 24 -21 0
67 98 -54 0
-39 72 46 0
83 -1 -39 0
-21 17 12 0
51 83 48 0
-84 -73 85 0
-63 81 38 0
-40 20 -77 0
12 24 -67 0
23 -34 -93 0
38 -31 -40 0
-88 -90 65 0
91 -69 -61 0
80 -98 -50 0
-44 -2 38 0
95 94 -88 0
81 -73 -100 0
35 71 -48 0
6 -21 -94 0
99 62 47 0
96 -33 91 0
85 19 -64 0
-98 69 63 0
33 32 57 0
83 -12 -90 0
73 -38 8 0
10 73 -6 0
6 84 -9 0
-19 -74 -92 0
68 -21 70 0
54 96 -55 0
15 35 75 0
-8 35 -56 0
66 72 -38 0
-72 75 16 0
83 56 -28 0
-72 33 -63 0
-46 4 68 0
-93 -20 -9 0
79 -20 -36 0
58 -35 -85 0
23 57 -37 0
-52 -58 -54 0
-6 -53 23 0
82 29 98 0
-4 -24 -65 0
-17 80 -33 0
32 4 -14 0
45 -96 74 0
96 59 -5 0
-6 -83 23 0
-59 -50 -9 0
-36 -92 -4 0
63 92 79 0
-89 58 -10 0
68 -100 44 0
90 -49 -56 0
-85 -45 64 0
47 65 -84 0
1 -58 -82 0
-80 -6 -38 0
97 -34 94 0
-97 -10 40 0
-89 -37 -10 0
77 2 -78 0
-69 -56 -100 0
-45 -62 -65 0
23 90 -80 0
43 -4 -31 0
-38 -52 -74 0
-43 -11 94 0
-7 -69 8 0
18 50 44 0
-87 -76 2 0
77 17 13 0
-74 51 -86 0
19 -13 12 0
62 -46 -64 0
52 39 -100 0
-80 -27 -89 0
-62 -47 -3 0
17 19 72 0
-67 -26 84 0
84 89 78 0
87 20 -49 0
-77 37 -69 0
-74 -81 34 0
95 -10 24 0
-75 -53 18 0
15 -32 37 0
-32 30 -13 0
-17 -83 -11 0
99 -23 91 0
71 -98 23 0
-42 12 75 0
95 83 13 0
6 87 -68 0
90 9 15 0
83 19 -53 0
99 -46 83 0
9 35 74 0
43 -35 -45 0
-20 68 13 0
44 58 -64 0
-24 -45 73 0
-33 74 38 0
-62 53 -35 0
72 -25 -90 0
45 27 -6 0
-49 -16 99 0
-28 52 11 0
-40 -77 -73 0
-91 85 -68 0
-11 84 -93 0
-3 36 -32 0
-27 70 56 0
-51 -10 86 0
-70 5 20 0
-84 -1 28 0
49 47 79 0
-90 63 -4 0
69 -10 80 0
-97 -28 92 0
30 11 2 0
-66 61 -50 0
-9 -11 -35 0
-26 -49 7 0
-14 8 -67 0
86 70 53 0
-100 -81 91 0
56 -77 6 0
90 -18 3 0
96 70 13 0
20 -75 -91 0
-96 37 83 0
98 2 -82 0
-15 9 29 0
-95 40 -42 0
-48 -64 -39 0
-37 21 76 0
34 -46 -37 0
35 -89 -73 0
55 -7 12 0
-85 47 41 0
-14 -74 -67 0
-69 48 -34 0
-33 85 3 0
94 23 42 0
91 -1 48 0
-82 13 -49 0
69 45 96 0
80 -63 -52 0
79 73 -47 0
-58 85 -1 0
-1 -22 -47 0
-7 98 -52 0
17 -98 60 0
100 -6 82 0
-50 -7 49 0
64 31 -14 0
86 -93 30 0
-21 1 -3 0
-42 -24 -95 0
-64 -23 -97 0
39 -95 41 0
93 57 -5 0
43 -83 8 0
36 86 64 0
6 -28 -19 0
-35 86 97 0
-100 -21 -94 0
47 -36 -22 0
-24 -2 11 0
-55 -36 -59 0
-52 -68 100 0
79 -86 -11 0
94 -67 -77 0
68 -22 -5 0
64 83 -74 0
42 98 -4 0
16 34 68 0
-7 -90 83 0
32 -3 -83 0
-71 -12 -42 0
76 -48 61 0
3 -64 31 0
-97 -61 94 0
-8 62 1 0
-62 -51 60 0
90 18 -42 0
89 87 -6 0
-76 91 -37 0
37 31 -18 0
60 92 -21 0
-83 -2 -60 0
-25 -91 -92 0
-12 72 -42 0
-62 -86 -52 0
-43 9 17 0
-9 -35 30 0
-63 6 -80 0
-24 27 65 0
2 -81 66 0
-96 32 44 0
26 -32 -46 0
41 -5 61 0
-23 3 -93 0
-24 -36 40 0
-43 -53 78 0
37 8 40 0
-8 73 82 0
-80 77 -94 0
-82 -95 63 0
42 22 -33 0
21 44 -46 0
13 88 -5 0
-34 14 11 0
-66 44 -90 0
93 -9 -52 0
-13 46 58 0
64 -19 77 0
-48 -53 30 0
56 -33 -78 0
35 -2 28 0
92 -33 5 0
50 28 -88 0
-30 50 -73 0
-16 94 10 0
84 -51 -40 0
14 36 96 0
32 25 -14 0
-94 -11 -87 0
66 27 -8 0
100 86 -95 0
-95 -99 76 0
-24 30 4 0
-63 26 -66 0
-75 67 84 0
88 59 80 0
76 89 -13 0
31 96 -12 0
50 35 78 0
-4 -63 -24 0
51 -91 72 0
-86 24 -51 0
-72 -22 61 0
98 24 4 0
-54 -76 -95 0
-23 -11 -29 0
-46 13 67 0
-54 -71 73 0
20 12 -95 0
-68 12 -30 0
3 41 50 0
-10 -31 -73 0
68 73 51 0
48 65 -85 0
12 46 81 0
-53 95 34 0
47 9 29 0
25 -74 11 0
85 -25 5 0
-26 -83 -41 0
-28 37 8 0
82 -60 -91 0
-17 -32 87 0
-100 -74 -95 0
82 53 -50 0
-53 -62 -25 0
91 65 26 0
59 17 87 0
80 -72 -98 0
-86 25 69 0
71 -67 -80 0
74 -26 -62 0
-100 21 33 0
-43 27 14 0
99 60 -86 0
22 -62 33 0
35 -99 -25 0
52 26 48 0
75 -34 -31 0
-96 50 85 0
37 -55 -79 0
-56 -26 86 0
-73 -57 -78 0
-43 -47 97 0
-8 3 -28 0
-19 50 -9 0
12 -6 72 0
-73 -99 29 0
1 53 -51 0
88 91 -22 0
42 58 -52 0
-31 28 25 0
56 59 27 0
-34 -27 58 0
95 -69 83 0
-19 -15 30 0
3 59 -84 0
-19 -49 -66 0
69 97 -68 0
89 11 71 0
10 -97 63 0
62 53 24 0
-20 8 -34 0
-8 -16 46 0
44 42 -70 0
94 72 42 0
17 -15 -87 0
11 3 -75 0
-5 -77 99 0
87 35 53 0
-48 -3 -75 0
63 -15 -65 0
-54 69 -63 0
-53 -66 -77 0
-68 46 -29 0
-30 34 10 0
79 62 92 0
77 18 35 0
100 74 2 0
-34 14 -89 0
76 4 -9 0
-76 26 -67 0
-72 88 -91 0
-15 -37 -72 0
2 -71 -45 0
59 -49 -25 0
-3 -27 -73 0
-78 59 21 0
-45 29 69 0
-27 -91 36 0
57 -33 -50 0
-58 65 -34 0
23 -71 21 0
24 -80 -17 0
15 -13 21 0
49 64 92 0
-67 45 97 0
83 -15 -12 0
-93 -91 53 0
99 -100 20 0
37 67 -40 0
55 61 74 0
52 -13 -48 0
-95 -52 -31 0
-20 58 6 0
-43 33 -59 0
-89 -67 -36 0
-83 3 -93 0
-10 19 -5 0
100 -45 -27 0
79 25 45 0
31 -93 15 0
-4 -68 91 0
29 86 -89 0
-88 87 -56 0
-26 27 -78 0
-53 -45 -75 0
9 -36 68 0
-94 -91 -95 0
-33 83 -62 0
5 -86 -4 0
-25 -100 30 0
48 87 24 0
-70 -82 -9 0
-14 -84 -24 0
54 3 -81 0
-1 9 -63 0
57 -72 63 0
84 -29 22 0
-87 -13 21 0
-35 2 -27 0
-17 -72 -71 0
-64 30 75 0
50 -63 -26 0
-20 -60 92 0
-97 -76 -18 0
12 57 -17 0
91 33 -39 0
75 36 31 0
51 8 94 0
-33 39 11 0
-18 57 -55 0
13 -39 -64 0
30 54 -43 0
66 55 78 0
-69 -36 90 0
87 -48 41 0
10 -83 96 0
