c Random CNF formula
p cnf 100 440
-70 38 -79 0
-33 -7 -51 0
-1 67 32 0
77 68 52 0
-9 52 -4 0
55 73 13 0
15 -79 -64 0
-40 -33 -65 0
99 4 -53 0
83 24 61 0
-43 67 44 0
61 -63 -34 0
89 87 22 0
54 -86 29 0
95 -80 39 0
49 -39 -83 0
18 93 -21 0
89 25 16 0
33 51 -93 0
-57 85 1 0
48 -34 57 0
50 -68 -10 0
-53 74 61 0
9 49 32 0
-79 -2 -41 0
13 -46 63 0
-16 -32 -43 0
-95 -13 14 0
45 -3 88 0
93 -48 -67 0
74 30 -25 0
57 -16 77 0
-25 -22 39 0
-54 -95 -38 0
-91 -16 62 0
-60 72 -12 0
72 -81 -58 0
15 -62 80 0
-45 24 66 0
-81 58 -53 0
-78 -80 -1 0
4 -77 58 0
50 25 -6 0
82 81 -15 0
-15 -51 -23 0
86 17 67 0
10 -6 -80 0
-21 -60 -84 0
89 -93 -23 0
33 -3 84 0
80 90 63 0
20 79 29 0
42 69 5 0
-7 -68 5 0
33 22 99 0
43 -24 3 0
7 30 29 0
48 72 94 0
88 -73 -66 0
27 77 38 0
-84 -92 4 0
-61 63 -79 0
-62 -82 -94 0
-1 -88 38 0
-28 -8 -99 0
58 14 -3 0
89 -55 -11 0
-37 58 -44 0
54 -31 17 0
55 -41 -83 0
-24 58 87 0
-53 -55 63 0
35 -54 46 0
40 41 16 0
56 -96 -2 0
-66 56 -24 0
-8 -45 90 0
-85 -43 56 0
-55 -11 18 0
-94 81 10 0
13 -2 56 0
71 85 -29 0
65 -84 -95 0
-49 -29 66 0
49 -45 46 0
51 13 -83 0
53 -8 -54 0
4 -9 57 0
-37 4 62 0
-39 72 1 0
58 89 10 0
83 -12 27 0
-64 40 -47 0
86 55 -74 0
-55 -52 40 0
-34 -91 42 0
43 3 27 0
-6 -1 -53 0
85 33 81 0
66 85 21 0
24 81 92 0
-80 82 -38 0
1 28 58 0
33 -3 43 0
-81 3 15 0
-20 75 -21 0
-21 97 -54 0
-15 -36 -8 0
65 -97 6 0
-44 81 -57 0
-23 12 -13 0
35 4 -77 0
-83 30 -39 0
-65 99 -64 0
-61 -5 -53 0
-13 -25 39 0
22 26 65 0
18 -31 -54 0
-67 -60 -88 0
74 12 -53 0
98 82 60 0
-100 -75 89 0
23 75 -81 0
40 -94 -88 0
83 -3 -91 0
-75 48 90 0
-75 -89 -27 0
-83 39 72 0
-87 -62 -83 0
29 -31 -86 0
-68 -51 86 0
96 -85 -73 0
-73 -86 65 0
24 -26 2 0
-77 -64 1 0
44 -67 91 0
-25 -71 -87 0
5 64 51 0
-54 -30 -48 0
74 -40 73 0
14 99 -42 0
-4 -92 30 0
-78 18 3 0
-36 88 -7 0
-73 -7 -44 0
-100 -36 -68 0
24 -3 -48 0
-17 2 -79 0
77 -79 -18 0
-29 38 -57 0
12 -58 49 0
-13 -17 -91 0
-91 98 87 0
22 62 -30 0
91 75 17 0
-52 -69 59 0
7 -75 -89 0
-22 -52 5 0
-31 -80 -53 0
-24 95 25 0
-20 -96 -41 0
39 -50 79 0
-56 -59 -42 0
-93 23 -24 0
23 9 54 0
5 -92 -11 0
42 -35 -59 0
84 80 -9 0
15 -78 70 0
-88 78 -24 0
-21 -3 29 0
20 -12 -99 0
79 58 -66 0
97 21 14 0
14 41 -75 0
-75 62 -55 0
76 90 45 0
-11 27 -28 0
-37 86 -4 0
-47 69 55 0
98 -56 47 0
57 22 -99 0
87 97 -21 0
50 96 -61 0
39 44 60 0
64 27 19 0
58 -40 -4 0
15 -29 -24 0
-82 43 -14 0
-77 59 -100 0
19 -95 -35 0
77 -51 80 0
-97 -71 77 0
18 39 -86 0
22 -87 8 0
30 -17 -37 0
54 -6 -34 0
75 -10 7 0
-48 -63 -77 0
5 46 -40 0
-46 19 91 0
91 55 -81 0
-45 36 22 0
-97 -8 -100 0
-53 73 -25 0
53 22 37 0
94 -13 83 0
-92 90 69 0
2 -7 67 0
35 -75 53 0
-5 17 30 0
6 66 -65 0
47 -83 88 0
-80 -16 -59 0
51 69 -42 0
59 43 -74 0
14 -13 -45 0
-73 79 36 0
-75 89 -21 0
12 -91 85 0
22 91 17 0
27 50 -98 0
-97 42 48 0
82 -88 99 0
-99 -64 -23 0
-92 3 -33 0
48 -43 -39 0
40 -50 -63 0
49 2 48 0
95 80 46 0
-93 -99 -56 0
58 -46 70 0
10 -67 -15 0
52 -59 63 0
-97 12 95 0
58 72 56 0
-89 -57 -31 0
-43 -29 40 0
-50 38 -92 0
-8 83 90 0
1 -17 -87 0
47 4 -20 0
-18 78 -75 0
-23 -69 -73 0
52 53 -59 0
58 -30 -96 0
-36 91 -29 0
17 95 -22 0
-77 55 -24 0
2 72 24 0
33 84 24 0
2 5 57 0
-97 27 32 0
64 48 26 0
-21 9 -64 0
-75 39 -91 0
-95 12 93 0
10 -40 -54 0
-57 -87 -94 0
14 -37 -30 0
-22 48 -53 0
49 66 23 0
5 48 -32 0
-61 -76 -69 0
85 6 49 0
-34 48 -54 0
8 30 -3 0
35 5 29 0
76 -78 98 0
-40 -12 -91 0
7 46 63 0
90 81 -84 0
-64 -35 42 0
48 -33 77 0
-95 -78 33 0
100 -52 23 0
-28 -86 -42 0
87 59 -36 0
-97 -8 -9 0
-38 -78 52 0
75 -18 27 0
23 76 -89 0
16 -84 -92 0
-95 -77 85 0
-82 59 57 0
-50 29 -59 0
-44 -64 -80 0
44 -57 37 0
73 59 -17 0
47 -66 -95 0
-92 64 77 0
-12 -70 -40 0
38 -80 62 0
100 67 -71 0
-22 -2 23 0
-88 -78 25 0
-75 94 13 0
-58 -24 55 0
-26 -40 70 0
63 69 -81 0
-54 -34 38 0
58 36 42 0
40 34 -24 0
26 60 -8 0
-7 -55 95 0
27 -49 -96 0
84 -29 5 0
-66 -1 -16 0
9 -23 53 0
-13 49 -20 0
25 80 -4 0
-23 -87 60 0
-77 34 -72 0
-47 77 34 0
-53 -35 -67 0
3 84 -58 0
73 -92 -70 0
55 -6 20 0
57 -72 23 0
17 -89 12 0
-83 91 -99 0
7 -17 -57 0
81 13 -4 0
-52 43 41 0
-51 23 60 0
87 99 -32 0
-96 -54 63 0
36 -22 -35 0
-20 -25 57 0
-53 -2 14 0
-91 -87 -26 0
63 -81 96 0
66 82 -84 0
-88 -67 78 0
98 92 68 0
-40 -20 -24 0
22 15 25 0
7 92 -97 0
-67 -24 -61 0
57 -20 -11 0
14 -94 -86 0
29 -36 96 0
-3 -53 2 0
-9 -8 -53 0
-44 -67 91 0
-97 2 77 0
96 87 -81 0
-86 7 -2 0
-92 -44 83 0
86 73 59 0
-38 -41 -77 0
-31 17 35 0
-53 34 -67 0
-62 58 -80 0
-87 36 26 0
83 94 21 0
87 -76 15 0
14 35 -41 0
90 65 -22 0
98 -15 31 0
-90 18 11 0
-26 -16 61 0
95 40 21 0
-28 -89 -62 0
-27 -97 67 0
79 46 22 0
8 -51 66 0
-11 78 -36 0
7 18 -58 0
-9 79 22 0
29 -86 -18 0
61 27 -28 0
-39 -53 -62 0
-65 60 -18 0
92 100 69 0
68 -13 -56 0
82 36 26 0
44 7 59 0
11 4 -49 0
-65 -27 -33 0
-81 -58 46 0
99 -61 32 0
-68 94 72 0
-92 83 -37 0
34 9 -47 0
-21 -37 -8 0
-72 -30 37 0
-75 95 21 0
-76 -84 -11 0
-3 -2 -70 0
-7 27 -31 0
60 89 37 0
53 35 7 0
8 -35 -64 0
-58 73 -17 0
-61 56 86 0
-21 76 -40 0
-58 -74 81 0
84 81 -83 0
82 -51 -80 0
20 -51 -90 0
-41 -24 -96 0
2 -69 4 0
35 -16 56 0
-39 -9 -30 0
-100 43 -86 0
43 -98 -77 0
39 -60 7 0
-56 93 22 0
-59 -66 -83 0
73 15 -24 0
-34 -96 -11 0
-88 -23 -67 0
-3 -49 50 0
49 1 -66 0
-44 -29 -7 0
36 19 87 0
62 -90 -72 0
-57 -84 -29 0
-40 -25 -27 0
27 49 54 0
80 -45 90 0
-80 28 -79 0
65 -39 72 0
-36 15 94 0
-84 -88 87 0
-73 -83 -79 0
-99 -64 28 0
-58 -45 -18 0
-87 -50 -93 0
-58 -75 93 0
-24 -34 37 0
18 -90 -64 0
1 24 -3 0
41 -24 43 0
33 27 29 0
-9 -60 24 0
52 41 -91 0
-64 -35 34 0
-27 89 33 0
