c Random CNF formula
p cnf 100 400
74 -23 -9 0
86 -46 22 0
-82 -22 -16 0
-44 -76 -83 0
-70 -58 73 0
44 -47 60 0
78 -55 -31 0
94 -4 -74 0
-18 14 83 0
26 -48 -73 0
-70 -92 -50 0
67 10 -13 0
93 -86 29 0
18 -53 14 0
46 63 -100 0
-9 -60 -82 0
92 -22 -72 0
-53 -63 46 0
10 -100 37 0
23 -93 -87 0
66 -33 95 0
-21 -67 -88 0
53 -59 66 0
-48 4 -54 0
-19 53 -90 0
56 71 68 0
66 -89 -98 0
-36 98 -8 0
36 -30 -83 0
55 4 41 0
3 -18 97 0
-92 78 -74 0
-13 92 -90 0
49 6 23 0
40 74 60 0
-15 44 22 0
-32 -25 31 0
-45 -75 -13 0
-80 -78 26 0
-34 66 98 0
64 92 -66 0
-64 -74 72 0
-19 -5 74 0
-78 -43 80 0
-99 -42 47 0
-31 2 -91 0
52 -39 -36 0
-15 28 24 0
25 34 -27 0
-35 -67 -13 0
54 2 -52 0
43 25 45 0
-16 -31 59 0
-90 66 53 0
84 -46 -97 0
-2 11 66 0
71 80 -17 0
44 85 59 0
-61 -96 50 0
46 89 -68 0
-77 -38 -73 0
-22 -75 79 0
46 -4 -94 0
-69 23 51 0
-77 49 -64 0
16 -65 61 0
-4 59 29 0
37 -12 96 0
18 -14 20 0
-20 -71 36 0
34 -12 28 0
43 -96 -32 0
9 -7 -1 0
49 37 -32 0
-98 5 56 0
34 68 46 0
-65 -36 -47 0
85 -51 -27 0
36 34 1 0
23 43 -65 0
58 19 1 0
-40 -6 58 0
28 -99 -86 0
-27 -15 -34 0
-61 -68 -40 0
-89 -24 2 0
-10 4 -21 0
57 32 67 0
-44 12 -22 0
59 -71 12 0
-83 -25 88 0
49 44 8 0
-4 11 -65 0
66 18 -17 0
82 47 52 0
-8 47 -28 0
49 -33 64 0
-44 -55 9 0
-71 83 -87 0
-3 96 -1 0
82 60 -87 0
60 -40 -88 0
-32 26 95 0
-37 -69 47 0
-31 -40 -12 0
-7 70 18 0
-71 -69 58 0
87 60 -86 0
-42 98 -29 0
-68 9 -45 0
99 14 -47 0
-37 -100 33 0
30 94 78 0
-16 49 -91 0
-59 58 32 0
-68 26 27 0
-82 56 -80 0
19 5 -50 0
61 66 -13 0
73 38 78 0
-54 -85 36 0
10 81 -92 0
-82 -80 84 0
-75 86 14 0
-35 -55 -24 0
90 80 -41 0
38 55 -42 0
36 -71 98 0
-24 -13 59 0
-53 37 -29 0
36 14 -24 0
-48 8 43 0
29 -100 47 0
49 23 71 0
-17 20 18 0
-38 -67 -61 0
-3 85 68 0
-18 -30 71 0
-59 2 -85 0
-81 9 -80 0
96 -59 99 0
-23 -38 15 0
29 45 -86 0
100 34 48 0
-86 58 -16 0
-37 -78 -53 0
43 20 -95 0
-86 -70 -84 0
-4 -33 -9 0
-90 -39 -31 0
-17 -9 94 0
25 -30 75 0
-39 -99 -33 0
4 -50 -86 0
-72 8 49 0
91 65 21 0
71 75 -48 0
18 82 3 0
41 -37 -29 0
58 30 -49 0
-90 56 76 0
-69 -43 -64 0
-26 67 50 0
6 -48 -79 0
87 13 58 0
-76 35 58 0
-18 69 -32 0
76 96 30 0
84 -71 -95 0
50 59 52 0
76 98 87 0
-83 -69 -14 0
90 -21 7 0
-61 76 -67 0
-62 48 -79 0
6 17 -80 0
-68 -44 72 0
-65 4 -19 0
40 -34 43 0
-4 16 -68 0
17 66 79 0
89 -76 100 0
5 79 87 0
-12 70 16 0
-17 45 33 0
55 84 -6 0
22 -45 73 0
38 -49 -88 0
-5 -46 39 0
-57 -94 43 0
25 41 100 0
-93 26 83 0
88 -71 -12 0
54 -1 -52 0
5 -91 -16 0
27 52 25 0
24 38 57 0
-72 13 -26 0
70 93 -85 0
-18 -47 -60 0
-64 43 10 0
28 -7 -40 0
10 95 31 0
24 4 -61 0
-36 76 -20 0
77 72 79 0
-35 -1 -86 0
18 42 -8 0
-52 55 81 0
75 -3 -39 0
91 15 94 0
51 -97 74 0
-82 83 -42 0
-88 68 -45 0
87 -73 89 0
67 21 79 0
91 49 28 0
-25 1 99 0
1 96 -13 0
92 7 -14 0
21 51 -49 0
71 -59 5 0
86 85 -75 0
11 91 -29 0
-87 -94 -60 0
-47 -30 42 0
-94 -53 -50 0
4 10 88 0
6 25 44 0
-75 13 -25 0
43 -39 -53 0
-50 52 -98 0
-92 31 -51 0
-100 66 90 0
63 81 32 0
27 -90 -20 0
60 95 -54 0
-56 49 -63 0
72 -59 61 0
-77 72 10 0
-76 32 56 0
87 -96 35 0
-69 -36 32 0
72 -18 -6 0
74 97 14 0
35 -64 26 0
11 -88 -5 0
76 28 -23 0
93 -18 -9 0
-62 -1 -16 0
-25 -31 93 0
-40 23 -4 0
72 12 66 0
-27 -31 4 0
25 -5 11 0
-70 47 -13 0
86 -21 -12 0
-47 -74 22 0
2 -16 30 0
60 -75 58 0
-46 -92 -49 0
88 -32 -39 0
-58 33 88 0
-19 -27 -52 0
-33 19 -46 0
38 -86 -45 0
49 25 9 0
-34 30 -99 0
37 57 21 0
78 92 28 0
76 -99 42 0
-88 -61 -33 0
-48 -40 -28 0
67 -3 78 0
-35 -79 50 0
55 7 -82 0
-97 -79 -44 0
96 -94 -21 0
8 23 39 0
43 77 95 0
-52 -90 -48 0
-5 85 47 0
-70 -40 37 0
-80 -69 -92 0
67 14 65 0
-94 51 -64 0
-27 -8 69 0
-83 -88 2 0
1 -34 36 0
-63 -2 -13 0
90 -32 -50 0
-5 -78 4 0
-65 30 -13 0
30 22 -92 0
-67 -5 10 0
-90 53 29 0
12 76 -6 0
-38 55 -93 0
90 2 -10 0
5 63 -81 0
-8 -45 3 0
-21 -5 -28 0
-39 -68 -34 0
-54 68 18 0
35 4 81 0
100 -61 50 0
52 -31 13 0
75 -37 -73 0
32 -36 44 0
-8 -45 -76 0
-11 -79 5 0
-37 -43 -23 0
-66 -90 -40 0
41 91 73 0
49 -78 -74 0
8 5 -29 0
2 -37 -23 0
47 -72 -34 0
28 64 -21 0
87 -86 57 0
95 -41 21 0
94 72 -19 0
-14 -72 34 0
60 -41 12 0
-54 3 -92 0
18 -23 -7 0
96 35 44 0
-9 -100 -89 0
52 -73 -47 0
7 -35 -87 0
4 41 90 0
-23 2 20 0
-4 -46 7 0
-57 83 71 0
86 -97 -91 0
-79 82 -10 0
-50 1 11 0
16 36 -55 0
-4 -2 -26 0
89 -6 86 0
71 -61 54 0
63 67 56 0
65 -91 56 0
-33 34 74 0
-33 -87 5 0
90 71 84 0
-22 -74 7 0
-44 23 7 0
-35 -43 -74 0
-72 -11 51 0
68 -60 -26 0
10 -13 -99 0
-9 -33 -27 0
-24 14 -62 0
11 59 -96 0
-27 -53 -30 0
-74 15 -82 0
92 87 43 0
-43 23 88 0
32 -36 -93 0
-83 -67 21 0
-91 -28 -36 0
-7 60 53 0
-32 9 73 0
-63 -45 -17 0
98 66 71 0
77 54 -6 0
-58 -7 -52 0
-63 -99 -93 0
88 30 85 0
-41 -31 -7 0
-89 -30 22 0
-37 -72 28 0
-25 18 -6 0
-20 -87 -92 0
52 89 -97 0
-86 19 -76 0
-28 44 -19 0
18 -96 -73 0
19 -11 93 0
-42 6 -97 0
-28 -81 49 0
-95 35 -2 0
38 88 -46 0
-77 -97 -66 0
93 30 -68 0
-37 -46 48 0
42 17 77 0
88 53 81 0
-85 59 95 0
-65 82 -41 0
14 94 -17 0
-12 -5 -13 0
-54 99 48 0
62 87 44 0
-35 1 -46 0
79 12 54 0
4 -15 -34 0
-10 16 -62 0
-32 -72 82 0
