c Random CNF formula
p cnf 100 420
-58 72 100 0
24 66 -61 0
39 19 12 0
77 51 -58 0
-2 -68 -9 0
-4 100 -60 0
-30 82 -38 0
36 53 71 0
41 -98 30 0
-14 52 38 0
1 -28 -27 0
-91 51 54 0
-35 -44 -12 0
16 -18 -32 0
63 -23 -88 0
-94 -99 -17 0
28 1 35 0
-3 27 24 0
-13 -6 19 0
-43 -38 50 0
-32 2 -77 0
-76 -62 74 0
-40 -30 79 0
71 26 88 0
-54 7 -14 0
-95 91 51 0
38 67 -23 0
62 72 -84 0
-27 -96 -3 0
-6 23 -37 0
47 18 58 0
-75 -18 76 0
-90 40 -5 0
-94 -40 -41 0
48 95 6 0
44 46 11 0
54 4 -64 0
-75 -2 -78 0
-33 54 94 0
59 -57 60 0
-4 -40 77 0
15 64 -100 0
-2 48 39 0
97 -44 -85 0
-52 -86 33 0
-26 28 -50 0
18 64 45 0
-36 -22 -15 0
53 49 81 0
-80 -58 42 0
-6 -87 91 0
-73 -3 -83 0
-35 -31 100 0
58 14 -81 0
-10 -88 -26 0
2 -97 -61 0
100 45 70 0
97 21 -51 0
-53 -93 50 0
1 49 71 0
44 -60 42 0
-83 92 16 0
-40 69 -42 0
-65 11 5 0
63 -4 28 0
23 69 -43 0
67 93 -87 0
-89 12 -98 0
-94 72 82 0
-33 40 86 0
27 39 19 0
-26 -53 -69 0
69 6 67 0
16 -63 12 0
-53 -52 -35 0
-61 -68 -41 0
34 -17 -90 0
-30 2 -88 0
64 14 94 0
92 -26 -90 0
-53 -68 79 0
-82 28 68 0
18 -30 -95 0
-78 41 25 0
18 -31 -17 0
-54 -70 91 0
3 -13 26 0
47 15 91 0
-88 -25 10 0
-79 -66 -73 0
23 -21 -37 0
88 -60 -10 0
-66 -46 56 0
-6 -26 -24 0
-25 78 -22 0
11 91 -81 0
-75 44 98 0
-100 -21 52 0
48 -99 56 0
-10 -44 -39 0
-82 80 7 0
-44 -28 -85 0
-66 -64 -83 0
74 3 -15 0
52 65 -7 0
34 33 36 0
67 73 -13 0
77 -86 98 0
50 61 22 0
-55 -64 -54 0
68 37 -62 0
-92 96 38 0
82 -21 53 0
96 51 -7 0
-29 55 -93 0
67 -13 93 0
-32 78 -91 0
27 -7 -46 0
86 54 59 0
47 100 96 0
-94 17 -31 0
-65 80 46 0
90 76 -25 0
32 65 -84 0
-8 -2 -35 0
-29 -70 36 0
71 -31 -81 0
-44 64 96 0
58 -80 99 0
-50 20 48 0
38 71 -98 0
-48 -75 13 0
56 -73 63 0
-2 10 -40 0
39 -64 93 0
29 -46 -85 0
91 57 73 0
36 -57 -68 0
-52 -94 -67 0
47 87 51 0
-48 50 -70 0
12 -98 -59 0
-67 -8 -70 0
55 9 -75 0
-11 -36 -95 0
84 19 -13 0
29 -63 -98 0
45 -44 43 0
93 -10 91 0
86 45 1 0
70 82 4 0
54 19 -32 0
-22 42 -27 0
8 -61 -40 0
-23 8 97 0
-5 -41 14 0
77 -92 -61 0
36 52 23 0
-71 -62 34 0
85 -71 -99 0
7 -28 18 0
67 -100 36 0
-2 -61 -48 0
-21 -54 99 0
67 17 82 0
7 -20 74 0
-20 17 11 0
-62 89 60 0
65 -39 3 0
-12 -57 -27 0
-40 -41 -52 0
-92 -9 47 0
87 60 96 0
2 -49 92 0
59 99 2 0
79 20 38 0
44 -97 -51 0
-49 94 15 0
-93 -82 -43 0
80 13 -17 0
52 -5 -60 0
-21 -16 56 0
55 66 18 0
50 62 43 0
79 90 41 0
-78 -68 -3 0
-57 14 72 0
-14 79 92 0
71 30 46 0
26 67 92 0
-4 -81 -85 0
-74 -54 90 0
-35 60 -16 0
-73 70 -72 0
-96 43 -77 0
88 -47 -31 0
-77 -71 10 0
85 18 40 0
79 -76 -82 0
60 -5 -19 0
-44 67 -17 0
83 -5 93 0
-77 14 61 0
73 -98 53 0
-89 -53 56 0
-43 68 -67 0
7 -38 -93 0
42 97 -40 0
58 32 -65 0
14 68 31 0
-9 94 86 0
22 29 84 0
-13 67 17 0
1 -38 -32 0
-57 -58 68 0
-6 -40 -4 0
19 -100 61 0
-89 8 26 0
3 23 -82 0
81 31 25 0
40 -93 -41 0
18 43 -90 0
-22 29 -40 0
93 31 -65 0
85 -68 -15 0
-24 86 -29 0
-10 57 -68 0
-76 37 -69 0
-37 -97 25 0
24 20 5 0
-1 64 8 0
-47 -42 -85 0
82 88 67 0
99 -22 -15 0
99 -33 -92 0
-29 -75 78 0
-92 7 -74 0
78 3 64 0
4 10 15 0
-93 -31 -80 0
41 -80 95 0
-12 -84 -66 0
89 -85 -77 0
47 90 -28 0
97 -98 -77 0
-96 6 -1 0
-51 72 39 0
88 92 -98 0
-16 -71 -31 0
-40 -44 79 0
8 95 44 0
23 -60 -51 0
-7 -28 54 0
-21 62 27 0
61 58 63 0
-27 -70 -50 0
36 80 3 0
-73 -84 -92 0
-94 -100 47 0
16 -3 42 0
49 42 -33 0
-51 -78 31 0
-17 -5 27 0
18 -67 -91 0
49 19 -27 0
18 -50 -67 0
-45 79 28 0
62 73 -2 0
86 -9 -28 0
100 -48 31 0
-16 -51 -64 0
-64 91 -36 0
99 -22 -45 0
-44 -55 20 0
40 -90 3 0
-52 35 -7 0
-93 -42 -33 0
-48 73 -39 0
-61 50 -79 0
-91 -28 99 0
-79 54 9 0
49 50 -5 0
64 -47 -61 0
-30 34 88 0
51 1 31 0
11 80 72 0
34 -45 14 0
-90 -51 -88 0
-43 80 -89 0
37 -47 96 0
-47 42 -91 0
-9 14 91 0
-87 62 6 0
-7 45 33 0
-33 92 -82 0
43 98 27 0
-54 83 -91 0
-21 17 -26 0
24 2 61 0
-18 -35 89 0
-50 87 -18 0
-6 25 37 0
52 43 -4 0
9 40 -57 0
-51 -93 80 0
87 89 -28 0
23 -14 -72 0
16 -20 42 0
-36 -81 -52 0
47 -71 -34 0
-98 -40 -86 0
-26 -53 62 0
72 8 28 0
36 25 -38 0
93 7 23 0
-87 10 -35 0
66 -60 -2 0
99 68 34 0
52 40 69 0
13 -62 52 0
80 -4 -2 0
-48 65 85 0
-58 46 -40 0
-13 -34 -43 0
17 -70 -39 0
-19 -48 -45 0
-7 52 13 0
-27 3 -23 0
42 -56 -61 0
-91 -23 35 0
24 -100 46 0
-85 49 -83 0
-57 92 81 0
16 -95 -89 0
-50 65 -30 0
-5 -68 -81 0
7 -42 -20 0
80 41 -25 0
-17 -97 63 0
19 15 -14 0
-5 92 -44 0
-69 -2 55 0
-10 14 72 0
10 64 8 0
-20 -47 -23 0
-29 37 -16 0
88 -79 60 0
-27 69 81 0
-72 86 56 0
81 36 -85 0
17 -22 -89 0
34 -45 -79 0
9 -89 -27 0
-53 -26 -19 0
-79 53 36 0
-45 -66 -91 0
16 -37 11 0
-50 -26 96 0
-47 -54 43 0
-38 85 -89 0
48 -17 -76 0
44 14 -99 0
-27 -12 47 0
90 -45 -3 0
-22 60 65 0
-29 -3 51 0
15 8 9 0
-28 -67 -75 0
51 -13 95 0
90 80 95 0
-61 -100 -16 0
-47 4 14 0
-15 100 -13 0
73 31 -17 0
-46 -100 -32 0
-28 -76 -58 0
-14 65 -20 0
80 -79 -92 0
20 -15 -95 0
-80 -4 52 0
-83 -98 -100 0
34 -69 15 0
27 84 72 0
-13 51 -81 0
48 -11 55 0
-43 58 -15 0
-68 49 71 0
-92 -48 -5 0
96 -68 63 0
14 1 -89 0
77 -89 48 0
-8 41 24 0
-7 -12 28 0
-55 -83 48 0
11 -51 -29 0
-20 37 -83 0
51 80 11 0
3 79 -88 0
-95 62 54 0
-10 23 -11 0
58 -87 56 0
94 -10 15 0
-92 -15 90 0
-72 -15 -28 0
-16 -20 -36 0
49 -26 -87 0
-50 66 100 0
-99 -75 -42 0
45 49 -76 0
76 -60 46 0
51 -42 -12 0
-94 53 74 0
33 -49 32 0
72 -24 -53 0
30 24 97 0
-20 -5 -90 0
63 20 58 0
-13 -32 20 0
-79 -45 -16 0
-48 89 42 0
