c Random CNF formula
p cnf 300 1300
76 -10 188 0
14 124 -27 0
-135 79 -165 0
-71 -124 84 0
293 -190 -107 0
255 115 -71 0
13 67 -299 0
185 143 37 0
213 21 171 0
-88 92 8 0
187 73 138 0
270 -1 -154 0
-106 -260 163 0
74 -88 176 0
240 -123 44 0
118 132 12 0
-184 -12 -116 0
296 -185 92 0
-26 98 137 0
-117 -85 -251 0
-49 38 -146 0
127 97 258 0
110 1 -129 0
59 147 -182 0
-66 -230 -148 0
121 -182 -31 0
174 -228 120 0
104 141 -124 0
267 143 31 0
-126 -121 -56 0
-254 -26 -223 0
-277 -295 163 0
-232 62 -142 0
18 -155 282 0
-166 222 300 0
68 -62 -298 0
105 135 115 0
-192 -186 -119 0
80 285 44 0
-34 207 -93 0
-288 21 -193 0
-29 89 275 0
-227 267 -106 0
20 -54 174 0
-213 95 23 0
-190 71 158 0
-123 78 -282 0
290 -233 135 0
156 275 210 0
-100 -11 19 0
113 -94 147 0
-295 -113 189 0
224 -217 -268 0
242 195 -286 0
-167 83 -293 0
257 193 57 0
188 80 103 0
289 -141 -248 0
230 47 -190 0
-291 -157 49 0
-107 -47 -245 0
-278 -230 167 0
298 116 -228 0
293 40 154 0
-45 39 242 0
-82 -182 -176 0
-140 54 -97 0
59 294 -87 0
39 59 -194 0
-226 191 -41 0
-271 -234 259 0
164 42 -125 0
-223 219 264 0
-232 -255 -40 0
-84 -95 -122 0
-88 -79 -3 0
-17 -98 280 0
26 158 -59 0
-103 289 190 0
14 -220 43 0
-43 -262 46 0
221 -254 -101 0
108 15 -253 0
-289 -83 -248 0
133 157 93 0
-274 59 93 0
-85 170 -132 0
265 225 -18 0
114 -23 109 0
210 -189 -244 0
123 -264 -220 0
-7 -70 40 0
5 285 284 0
-159 -125 104 0
-266 -20 66 0
-161 -255 -69 0
183 -193 -91 0
217 -12 223 0
181 -150 -190 0
274 -7 197 0
-243 -280 175 0
-36 153 -155 0
-139 217 17 0
218 298 22 0
135 284 91 0
9 -199 -299 0
204 -230 -52 0
-97 166 -225 0
97 4 -11 0
-93 155 132 0
125 -235 213 0
-46 56 7 0
100 65 70 0
286 -27 148 0
-245 -83 -244 0
-230 77 -123 0
-90 -291 144 0
-28 213 166 0
55 198 -203 0
-145 248 -191 0
-57 267 240 0
-68 -276 -261 0
-134 -15 -55 0
-180 158 -135 0
-153 155 -292 0
90 74 77 0
-294 204 -277 0
-216 129 -148 0
-259 1 -64 0
11 -128 51 0
-112 -50 -34 0
-131 146 298 0
-254 161 232 0
-43 -240 39 0
-188 252 146 0
281 -105 99 0
-9 79 93 0
-94 -109 -47 0
97 64 -183 0
-221 270 140 0
-71 121 -258 0
137 68 152 0
109 136 -255 0
-30 -137 40 0
-272 -74 193 0
67 -164 236 0
-97 174 200 0
-18 -188 34 0
264 -14 260 0
184 94 175 0
-227 194 298 0
186 -110 156 0
179 -113 -1 0
-264 -28 73 0
263 24 157 0
-47 160 243 0
2 296 -88 0
24 27 -275 0
-15 93 -73 0
-45 -178 -63 0
184 181 48 0
263 201 -95 0
108 202 23 0
-31 46 -247 0
-41 40 70 0
-30 165 -4 0
-73 7 -49 0
209 -112 197 0
55 155 262 0
-244 -249 264 0
185 -299 72 0
128 -86 50 0
-17 -53 -92 0
-215 17 55 0
-36 106 60 0
-32 -268 -103 0
-270 -141 -247 0
169 -260 -106 0
129 -230 -76 0
244 -114 -11 0
238 118 -229 0
207 -20 3 0
114 164 226 0
-198 -240 255 0
300 227 198 0
69 145 89 0
-275 221 -234 0
-21 286 -45 0
-51 -5 138 0
8 -269 -290 0
211 187 -160 0
216 170 -26 0
-263 238 255 0
-180 93 251 0
99 96 222 0
187 -245 -95 0
48 51 31 0
-172 13 160 0
-56 -195 -243 0
-245 24 133 0
-178 -276 45 0
-171 -106 -241 0
-16 -150 66 0
210 -4 -70 0
-266 -225 -237 0
259 160 -40 0
298 267 9 0
-235 122 -244 0
292 92 69 0
120 -280 -61 0
230 -138 -289 0
234 112 249 0
-50 266 -153 0
230 236 115 0
-143 -150 -209 0
31 -33 142 0
199 277 87 0
-268 129 47 0
31 -260 -266 0
280 196 -159 0
113 -69 253 0
241 -181 -130 0
-76 -150 -21 0
-49 -172 -8 0
-121 -145 -270 0
-123 -274 -40 0
106 53 77 0
114 158 -286 0
223 -165 -198 0
16 165 177 0
-179 238 -172 0
-199 213 236 0
-32 -33 -164 0
236 -121 6 0
-94 -38 -244 0
-257 -218 -289 0
135 198 -180 0
28 222 -255 0
-92 -253 -138 0
275 -249 -266 0
-252 -261 -39 0
-154 -110 -118 0
214 -57 -16 0
-144 207 290 0
-57 -33 25 0
-105 138 136 0
57 -142 11 0
185 191 55 0
-290 -85 -11 0
-87 45 -122 0
-54 158 -101 0
-64 195 -208 0
115 -155 -134 0
-291 -66 139 0
178 117 21 0
199 124 -113 0
-263 22 -257 0
145 -111 -187 0
168 -124 -154 0
190 -161 99 0
-178 282 -107 0
-95 142 167 0
-108 -106 288 0
-42 -168 140 0
-148 -206 -223 0
-203 -212 -262 0
56 120 -173 0
-34 225 -175 0
86 281 54 0
-221 99 212 0
92 -196 78 0
233 29 -37 0
41 60 62 0
-166 -58 -287 0
264 66 276 0
95 -292 -14 0
150 -236 -290 0
181 -112 -103 0
93 136 242 0
66 102 -215 0
173 -131 -174 0
150 -54 196 0
244 112 -280 0
-12 -59 120 0
239 292 -180 0
-265 -233 -8 0
109 133 243 0
-199 113 -96 0
54 -133 -277 0
265 287 -105 0
234 256 -131 0
-42 183 -127 0
277 257 223 0
-10 29 264 0
197 112 -132 0
-256 227 127 0
-289 165 -203 0
187 41 -192 0
170 197 -130 0
-249 -36 293 0
-120 -169 294 0
208 133 238 0
41 -165 186 0
-60 202 46 0
-170 5 173 0
-11 282 103 0
-176 277 140 0
251 97 247 0
-73 4 -33 0
-147 4 195 0
136 -22 -36 0
-136 -135 -294 0
110 -226 -250 0
146 -100 -133 0
299 -254 272 0
-179 -163 -283 0
-95 -212 211 0
300 -235 107 0
-296 135 170 0
-292 -117 207 0
160 158 -60 0
214 266 -96 0
138 13 86 0
163 180 65 0
-209 106 194 0
49 -62 300 0
-229 -166 -75 0
133 204 192 0
-266 52 198 0
77 16 -99 0
95 14 -280 0
158 259 300 0
-253 -15 109 0
-71 -117 248 0
261 -66 30 0
-74 -273 297 0
220 -45 236 0
294 125 70 0
-189 217 -243 0
184 -198 -140 0
253 223 150 0
180 -90 -273 0
193 -238 -26 0
172 -179 -189 0
262 93 22 0
129 -196 37 0
152 123 111 0
20 -37 -189 0
23 -253 -73 0
-134 -294 19 0
85 60 -162 0
-219 -179 248 0
-47 59 6 0
195 -120 -192 0
184 -29 -111 0
-161 -146 -220 0
-41 213 -221 0
146 -136 227 0
-247 -30 -177 0
-71 -121 -262 0
267 -293 -92 0
-2 -174 -51 0
159 -290 -59 0
120 -2 82 0
-96 -222 15 0
191 235 -148 0
-293 146 196 0
37 -176 112 0
-43 -112 239 0
140 -146 -226 0
-199 -91 -231 0
180 -136 -108 0
-14 -249 -59 0
153 -38 52 0
-299 118 -26 0
-64 84 194 0
235 -212 -147 0
224 -91 -26 0
141 250 -256 0
-260 54 -1 0
192 -209 -206 0
-111 294 -171 0
10 148 -184 0
67 -69 99 0
19 -162 285 0
-244 -192 13 0
-263 -13 -183 0
8 -221 272 0
207 -25 130 0
-119 -244 242 0
277 -229 50 0
153 -268 -59 0
-291 -70 264 0
292 49 -13 0
37 -175 79 0
75 -56 42 0
115 -148 -129 0
17 -2 -203 0
26 177 -237 0
-71 215 -188 0
-277 108 -186 0
111 63 128 0
155 182 -167 0
103 159 299 0
-150 277 -138 0
95 265 -177 0
191 135 67 0
223 -3 -210 0
4 -128 -140 0
-199 186 248 0
79 -2 208 0
61 37 207 0
-3 -16 110 0
212 77 -182 0
-233 -143 -211 0
265 -252 264 0
249 198 -290 0
-215 -59 -29 0
-122 -154 148 0
120 -42 232 0
-103 166 -47 0
-73 249 -90 0
234 -63 88 0
-222 -242 -167 0
284 -87 -264 0
-247 -239 223 0
-295 248 101 0
7 93 -211 0
126 62 68 0
175 -49 -127 0
82 290 161 0
-169 238 -5 0
-265 240 -90 0
-132 74 -217 0
39 -279 157 0
-210 121 -95 0
288 -222 298 0
-145 -73 -277 0
227 -41 13 0
145 231 -106 0
21 213 15 0
-182 132 194 0
-46 205 -57 0
-127 -51 -5 0
-289 -227 -117 0
-42 -188 -189 0
-225 294 276 0
251 -173 -272 0
-31 -100 209 0
-300 -13 6 0
128 -259 -256 0
-74 -296 -123 0
175 -238 -54 0
106 -63 -203 0
231 -229 103 0
229 -294 -265 0
-215 -159 19 0
167 -186 -230 0
3 48 195 0
39 49 276 0
-150 -182 -177 0
-149 58 179 0
-289 -280 -134 0
-227 -151 54 0
-36 -267 159 0
-290 -145 -51 0
-133 200 70 0
82 -50 124 0
-143 -227 130 0
71 215 -107 0
1 -285 -116 0
-238 201 -228 0
-124 6 -227 0
-263 104 -13 0
200 -194 196 0
247 169 -97 0
-185 -105 -194 0
-123 -212 131 0
-79 -208 54 0
219 -227 177 0
262 183 -82 0
65 -22 291 0
-61 85 210 0
-90 166 74 0
119 49 135 0
239 -15 81 0
240 150 -124 0
-240 -16 261 0
152 271 288 0
-90 226 -55 0
268 -276 -143 0
-252 -39 -88 0
-289 -179 222 0
-173 -53 -201 0
179 -53 -31 0
-183 193 -46 0
-127 -207 171 0
-256 -214 286 0
-9 263 -297 0
-269 -298 41 0
-296 275 262 0
-11 -158 -69 0
-260 149 26 0
-11 217 -118 0
-65 -73 8 0
-164 39 62 0
92 -298 182 0
-131 101 -70 0
-270 65 -240 0
-118 152 251 0
-273 -166 -28 0
-141 -183 -144 0
-287 286 149 0
-84 -227 -31 0
-150 232 201 0
-178 139 -208 0
-198 171 134 0
197 209 -132 0
-203 53 264 0
133 -122 272 0
-240 174 -172 0
-216 -53 -245 0
-93 -202 -29 0
-190 -73 -67 0
249 -247 -19 0
157 229 -116 0
103 132 177 0
51 -226 266 0
-267 284 -92 0
-297 112 -263 0
255 181 3 0
7 100 -279 0
-256 -7 -121 0
201 -78 -208 0
-40 -7 -148 0
-298 -103 -121 0
115 268 -99 0
-176 37 174 0
203 127 104 0
-57 -220 159 0
221 249 -175 0
2 -78 67 0
-236 -188 -145 0
175 -193 -240 0
-251 187 23 0
27 -96 80 0
229 163 59 0
103 -169 241 0
124 174 84 0
-109 180 -293 0
81 157 31 0
40 -252 159 0
-164 -206 -126 0
-147 22 208 0
-273 -90 -227 0
144 -66 155 0
-109 -265 189 0
-45 235 33 0
54 170 207 0
206 -241 -274 0
-79 182 -244 0
177 -42 55 0
-242 33 -284 0
-79 -138 -22 0
-275 -75 -204 0
50 215 46 0
291 -143 -65 0
-145 -113 -187 0
220 66 -131 0
-44 74 -132 0
-97 173 -261 0
216 -243 -33 0
186 202 -212 0
-110 -96 263 0
294 247 -182 0
111 295 67 0
-104 154 -283 0
-166 -123 82 0
259 200 -208 0
-272 -296 163 0
251 -237 124 0
-274 -39 -106 0
-232 -73 -290 0
211 -205 -3 0
55 141 86 0
-210 -24 -67 0
164 83 -121 0
208 277 -282 0
-68 102 -90 0
18 75 -286 0
206 -98 225 0
92 53 204 0
62 -285 195 0
259 -284 -62 0
-140 -80 -58 0
-268 -57 102 0
-134 119 25 0
-2 -78 -111 0
16 -23 -199 0
137 -228 -287 0
20 -276 -208 0
-17 -59 251 0
50 11 135 0
-278 -84 -53 0
237 192 -224 0
-5 -118 -9 0
-174 -210 94 0
50 -134 -182 0
110 6 -74 0
201 20 204 0
-214 44 35 0
-242 13 146 0
-270 164 272 0
-136 217 -8 0
-207 -56 63 0
-287 180 -67 0
-145 72 -247 0
-262 -108 -168 0
171 -229 255 0
292 10 -170 0
285 -79 -76 0
49 16 -219 0
-85 99 231 0
169 160 146 0
251 145 -5 0
-82 -5 287 0
-141 -135 235 0
-194 -109 217 0
22 67 -266 0
173 136 171 0
-76 290 227 0
-219 -223 -273 0
-268 64 154 0
207 -100 87 0
237 -257 -61 0
-225 103 217 0
-256 -198 123 0
-151 -242 235 0
-20 -76 58 0
194 145 15 0
298 -299 255 0
-108 272 -109 0
290 143 132 0
-70 153 -88 0
-255 -101 -24 0
162 243 46 0
236 -159 -65 0
117 -51 -186 0
66 143 -128 0
172 -282 -156 0
-107 270 -25 0
-242 -100 205 0
198 139 194 0
-95 -129 -298 0
256 -138 -2 0
171 14 125 0
-154 -299 76 0
-144 292 -23 0
-103 -77 -36 0
-261 242 20 0
16 158 -129 0
-222 -150 34 0
-163 3 67 0
-91 -118 185 0
245 76 258 0
-207 -221 -39 0
45 226 -67 0
281 -105 -209 0
22 132 -97 0
54 -30 -252 0
-254 -57 -179 0
-221 -209 69 0
-49 168 -105 0
243 -36 -287 0
-271 -268 -81 0
155 -129 -59 0
93 -41 269 0
216 -64 -256 0
-270 188 -103 0
300 32 -84 0
252 -62 81 0
95 -280 296 0
-105 -271 -234 0
-109 -64 61 0
-114 15 -239 0
213 -82 -49 0
-152 165 39 0
-231 -19 232 0
104 -21 214 0
-214 158 -149 0
-3 -277 -101 0
138 99 165 0
33 -259 168 0
-202 268 -192 0
300 -188 -213 0
-169 204 130 0
-41 43 38 0
-70 -146 -200 0
-33 299 265 0
274 220 27 0
-158 94 -182 0
132 291 180 0
-247 159 255 0
248 112 93 0
-100 135 -130 0
16 297 229 0
-170 125 -223 0
23 132 -220 0
-73 80 -274 0
-77 128 122 0
-155 -241 121 0
127 257 103 0
191 -270 233 0
-194 59 173 0
-22 -52 275 0
-119 -232 142 0
-142 32 -230 0
79 -295 219 0
-193 102 178 0
77 134 201 0
-194 -142 103 0
-222 -149 100 0
-210 -217 -177 0
69 -209 63 0
64 -174 -164 0
18 -162 232 0
-267 292 243 0
-89 -31 287 0
75 269 -141 0
-192 -239 101 0
105 206 -79 0
-106 159 -222 0
280 -224 109 0
129 207 -49 0
270 120 -295 0
156 -75 170 0
277 92 -222 0
39 -76 -58 0
-249 139 181 0
-173 -242 62 0
-25 -76 7 0
215 151 -222 0
-208 -134 252 0
-296 213 -268 0
-63 -251 56 0
19 194 52 0
-135 -187 -115 0
-265 254 259 0
-272 132 84 0
-120 78 -232 0
-211 104 53 0
234 -167 178 0
-96 -249 -195 0
-284 -188 225 0
-190 284 -31 0
188 14 -121 0
291 -214 195 0
6 276 236 0
-107 -202 -145 0
235 -258 -156 0
-163 87 64 0
148 -222 136 0
-207 69 65 0
-10 -25 123 0
285 122 -216 0
-59 121 -63 0
-60 -247 -92 0
92 -112 115 0
-230 -207 38 0
36 17 256 0
-159 90 267 0
-145 -231 -92 0
-201 -15 -263 0
-5 47 -171 0
-292 202 -72 0
-37 -300 55 0
-257 222 -99 0
-173 -11 -210 0
-207 94 288 0
293 -126 -6 0
-81 118 -104 0
85 -57 150 0
-153 -63 224 0
95 259 -193 0
-284 52 109 0
-102 -118 61 0
-8 -272 -157 0
119 157 80 0
204 143 -123 0
37 -70 -270 0
-5 146 165 0
280 -257 -126 0
-62 101 -194 0
123 -70 13 0
291 73 -300 0
-222 224 25 0
129 -298 -43 0
74 49 -87 0
153 88 -13 0
58 172 -247 0
222 -177 38 0
230 212 131 0
-224 -276 -226 0
112 -79 167 0
186 57 -242 0
124 43 20 0
88 136 162 0
71 -246 154 0
10 -44 -114 0
240 99 -277 0
71 240 135 0
-140 258 -84 0
294 14 90 0
266 242 -113 0
-210 -164 224 0
111 -21 -75 0
44 114 -19 0
-264 204 -267 0
-127 164 -51 0
245 18 -272 0
198 -297 252 0
123 42 -254 0
-57 -175 -135 0
-22 188 108 0
298 -193 147 0
109 -119 181 0
-132 -175 79 0
61 182 -203 0
-230 197 -165 0
-275 -146 -242 0
-135 -126 -264 0
-55 28 -95 0
229 -73 23 0
-203 126 -170 0
-57 -61 171 0
-91 40 -279 0
173 199 235 0
147 -257 229 0
289 -27 116 0
266 137 -54 0
-182 199 17 0
65 245 194 0
211 269 50 0
183 211 -42 0
-174 -137 200 0
-88 211 -267 0
25 221 253 0
115 149 85 0
272 2 -73 0
-44 219 204 0
100 53 292 0
-151 294 27 0
122 -112 -192 0
265 -21 152 0
-21 -262 189 0
-17 41 -122 0
-98 -108 260 0
168 40 -166 0
-134 31 -84 0
119 -30 211 0
222 282 140 0
251 -248 268 0
-285 71 191 0
3 17 -44 0
-111 -282 217 0
-54 238 -291 0
-141 137 25 0
187 102 269 0
24 40 -239 0
221 -56 -66 0
54 127 272 0
28 -196 227 0
274 114 299 0
166 79 -146 0
26 -289 179 0
-120 -147 -84 0
254 -193 -151 0
-256 153 158 0
166 -135 -148 0
-46 -85 -41 0
-81 -279 63 0
58 -274 176 0
-284 291 281 0
-291 -133 24 0
-277 -76 196 0
-117 -237 -253 0
-211 -77 -82 0
185 -207 -61 0
-50 204 9 0
232 137 231 0
-128 -96 -255 0
34 -15 -285 0
11 -253 184 0
110 206 -145 0
-212 -21 148 0
236 234 -144 0
-263 107 -171 0
213 96 168 0
-129 167 241 0
-110 -224 -81 0
-291 82 177 0
-282 193 -169 0
-167 191 -261 0
225 182 284 0
-26 192 113 0
254 93 -273 0
-50 -47 45 0
63 -228 -227 0
-223 89 253 0
271 287 238 0
283 -152 185 0
-47 233 62 0
-183 -134 -191 0
-259 -227 195 0
128 141 -215 0
290 -101 -286 0
-54 -258 52 0
-173 -83 114 0
286 75 284 0
78 128 -260 0
-60 -287 2 0
82 100 -69 0
230 225 -139 0
224 262 -110 0
99 298 -128 0
179 250 -48 0
-104 -40 -269 0
295 -15 183 0
44 199 293 0
154 204 289 0
127 116 186 0
-280 -73 31 0
1 -147 -55 0
-236 251 297 0
60 -260 -181 0
-129 -163 148 0
-145 174 45 0
-269 56 287 0
271 -79 -89 0
250 136 73 0
-226 -297 227 0
166 -258 -61 0
-121 -217 -95 0
-157 6 -228 0
155 -300 -126 0
-106 -93 123 0
46 229 -176 0
-49 -53 232 0
35 50 81 0
-130 100 80 0
75 52 71 0
123 291 296 0
42 269 -60 0
87 -150 80 0
-108 -113 292 0
137 -132 -154 0
-218 -231 -118 0
32 40 -257 0
225 20 -163 0
79 -114 -171 0
264 68 225 0
-228 -203 -197 0
214 -160 -194 0
-30 -20 157 0
-92 223 -116 0
49 277 -44 0
-146 211 187 0
278 266 -33 0
47 56 -184 0
-159 -207 97 0
232 284 254 0
192 -221 212 0
-275 -143 294 0
-69 231 -105 0
-118 298 -107 0
-134 224 261 0
-107 180 11 0
155 -291 64 0
-250 258 -154 0
-45 -278 -32 0
-281 -253 -100 0
-244 192 30 0
18 -209 144 0
-230 -140 -170 0
-143 171 223 0
72 140 -5 0
-213 -267 -90 0
-21 236 270 0
47 -142 -89 0
252 -16 -130 0
137 -222 154 0
-131 29 -183 0
-196 -6 -211 0
-221 140 296 0
28 274 -33 0
-139 59 7 0
-225 -184 -85 0
149 -4 -49 0
291 -274 -156 0
145 -194 -68 0
-208 -44 250 0
149 -208 -82 0
251 -182 -273 0
-126 169 67 0
-129 65 56 0
263 -197 73 0
-37 -53 -99 0
-150 -272 176 0
-56 -278 -115 0
-234 238 88 0
-231 -64 191 0
-297 -262 -17 0
151 15 -268 0
-154 -43 -242 0
23 202 116 0
-182 -74 -177 0
-69 285 240 0
288 164 56 0
67 261 -267 0
3 185 -11 0
207 71 264 0
299 70 -58 0
-274 -145 83 0
46 16 61 0
-25 119 -154 0
65 -116 -276 0
265 242 203 0
184 97 -167 0
-274 42 -1 0
-166 244 -228 0
-63 -280 72 0
169 -148 -244 0
218 -44 155 0
222 -18 -117 0
23 266 98 0
-181 20 -59 0
-7 -56 -283 0
-77 -135 273 0
23 -222 -151 0
-249 100 -33 0
83 -37 -208 0
-222 183 103 0
299 -111 139 0
-43 29 14 0
94 299 5 0
5 -112 -156 0
74 114 -25 0
204 -151 266 0
80 198 53 0
-262 52 -185 0
283 -276 -269 0
87 -154 168 0
-107 -243 -199 0
243 -180 181 0
-227 234 -44 0
34 282 -196 0
-52 299 117 0
159 -205 -191 0
-17 -231 77 0
-133 -153 -17 0
235 -29 -42 0
-244 -11 -69 0
67 -128 48 0
-176 239 233 0
54 -5 201 0
-234 201 247 0
-102 287 -5 0
268 4 110 0
-62 185 180 0
-45 -23 -251 0
73 -146 53 0
43 -244 168 0
226 195 -102 0
103 -35 239 0
269 8 -32 0
-193 -115 94 0
217 42 226 0
-159 289 7 0
212 -163 84 0
-147 168 -212 0
142 -210 193 0
44 197 234 0
262 284 23 0
81 149 226 0
-126 271 177 0
-130 -68 -274 0
85 272 -45 0
46 -231 47 0
-171 196 192 0
-101 2 -266 0
4 -276 -178 0
-87 128 -139 0
-18 -299 62 0
32 -162 -124 0
-181 -285 165 0
-196 68 -9 0
192 -64 112 0
227 -173 -139 0
193 -36 195 0
-255 -101 -284 0
-167 -210 234 0
-275 255 22 0
-6 -261 -109 0
-250 -45 -138 0
155 -285 -109 0
-184 -216 241 0
-12 -78 -154 0
-196 -197 -34 0
22 126 239 0
217 -169 193 0
-235 -269 -188 0
18 -137 152 0
-92 -250 -84 0
-282 96 -195 0
43 290 9 0
251 -93 227 0
-31 1 133 0
-284 -108 -158 0
-178 -284 -162 0
66 -37 -215 0
-122 -68 222 0
-103 298 -293 0
172 -146 288 0
-244 -216 120 0
21 -4 107 0
290 174 -239 0
-190 -246 154 0
-52 211 -65 0
-283 267 -263 0
-253 -22 26 0
-160 277 -184 0
54 -36 -78 0
243 -65 78 0
298 97 -90 0
113 -28 84 0
141 -280 -278 0
-236 102 -118 0
-208 -187 56 0
133 -297 -9 0
7 -257 56 0
2 -217 298 0
-292 275 -174 0
-229 276 212 0
-264 -155 -221 0
-3 -10 14 0
233 -41 -78 0
-75 37 65 0
6 -182 73 0
214 -300 174 0
289 219 127 0
179 -120 -187 0
-210 -146 248 0
-88 80 -87 0
-205 -188 55 0
88 -190 -51 0
-107 -52 -214 0
153 21 234 0
15 -280 153 0
-137 -31 -264 0
247 122 102 0
64 -135 179 0
-255 -289 203 0
-184 233 -211 0
-161 -281 -180 0
57 -300 102 0
75 -23 -82 0
63 -163 66 0
-25 -24 21 0
-241 122 265 0
283 120 244 0
20 178 68 0
295 -297 132 0
-270 -256 253 0
206 13 -43 0
-248 55 190 0
212 -136 183 0
224 -156 42 0
-42 124 51 0
3 -10 -42 0
-186 121 -188 0
268 -2 -262 0
160 -139 183 0
288 -178 86 0
228 201 1 0
143 217 273 0
-158 -33 29 0
135 82 130 0
93 -84 78 0
-223 4 -80 0
-201 -99 115 0
-64 -151 -211 0
-239 33 -11 0
268 -123 65 0
1 27 149 0
108 217 -277 0
16 -52 -239 0
-249 -53 279 0
272 136 -100 0
276 -251 -241 0
-67 144 -231 0
-162 -125 -140 0
-118 198 193 0
-231 -49 163 0
-223 -85 -192 0
-240 -68 -245 0
190 219 118 0
91 -29 -254 0
127 -193 251 0
195 -59 -4 0
-123 116 103 0
-280 215 38 0
-267 134 -85 0
-233 137 171 0
1 -156 -142 0
101 197 29 0
300 -182 186 0
-211 -121 -225 0
248 282 218 0
-19 24 114 0
-12 57 -261 0
95 276 116 0
-159 -97 251 0
124 11 293 0
-208 -127 -299 0
263 -72 -135 0
-276 -12 -174 0
-193 -185 -69 0
51 -140 179 0
275 -96 297 0
46 112 -81 0
250 -290 -166 0
-268 -52 -23 0
258 146 40 0
-28 -85 79 0
131 277 -14 0
53 80 -169 0
33 100 120 0
240 -176 -55 0
225 -217 267 0
83 -273 -66 0
77 -257 -74 0
126 45 43 0
-151 -277 -73 0
-130 208 117 0
-73 -126 -188 0
101 -191 -47 0
270 51 -188 0
-200 -235 45 0
9 63 -86 0
103 -154 -178 0
-274 37 8 0
-28 102 113 0
-237 -147 152 0
-2 -257 -224 0
280 180 -24 0
-189 -152 39 0
63 110 -280 0
130 157 43 0
158 267 28 0
99 132 -5 0
28 -265 -138 0
-233 -241 186 0
-283 -5 150 0
-264 19 249 0
31 220 -194 0
-173 -93 -211 0
179 -74 235 0
-62 -162 176 0
-197 -100 254 0
221 -223 156 0
-163 261 294 0
-168 259 3 0
-149 287 256 0
249 -234 195 0
-254 122 1 0
-81 212 -55 0
98 20 132 0
291 -184 -18 0
-194 -272 57 0
-66 -119 -4 0
-71 -162 232 0
-247 -169 -24 0
-86 -55 -113 0
300 -196 -13 0
-243 -37 299 0
182 84 280 0
-127 22 41 0
147 -86 -161 0
-222 -184 229 0
269 -189 -37 0
-71 138 -86 0
-177 -209 155 0
-45 -209 -224 0
126 -64 29 0
-114 -153 192 0
-6 155 -16 0
-181 -271 -262 0
112 -63 249 0
118 -195 163 0
239 167 -92 0
