c Random CNF formula
p cnf 300 1300
-86 -47 251 0
-266 210 -152 0
143 163 24 0
150 -218 -249 0
30 -218 282 0
85 -86 106 0
30 187 -66 0
300 -79 -187 0
-57 293 25 0
-269 209 198 0
234 25 95 0
-29 -41 58 0
199 139 29 0
-51 183 -269 0
194 193 124 0
-138 -282 -76 0
288 240 -11 0
-1 -295 -161 0
-139 -275 -143 0
1 -91 -51 0
121 -46 209 0
3 200 142 0
-53 -203 -118 0
-106 -289 276 0
150 -56 285 0
132 -85 -190 0
-45 -123 -185 0
267 -53 6 0
107 139 45 0
286 69 229 0
-207 -45 -149 0
-158 -282 185 0
-174 128 -137 0
192 -250 78 0
-273 190 -227 0
-15 -105 -245 0
281 238 300 0
-266 -154 -279 0
160 -113 30 0
283 28 -140 0
168 -109 -134 0
24 -174 28 0
150 -118 -134 0
289 -3 -208 0
-58 161 286 0
-59 101 -14 0
187 293 185 0
-184 121 281 0
82 -170 18 0
-27 140 -173 0
-244 11 298 0
-242 -236 82 0
-268 -138 -190 0
-215 6 -256 0
257 155 208 0
-282 -141 57 0
124 62 -299 0
-114 -123 -192 0
45 245 -12 0
-131 -35 -28 0
-256 -293 -102 0
-257 11 -137 0
-173 108 -166 0
172 -296 -46 0
-168 68 -111 0
-88 229 -46 0
-170 51 163 0
208 60 256 0
-21 -7 -60 0
42 195 -143 0
208 -4 -19 0
-109 143 -108 0
-265 -233 272 0
-74 101 65 0
293 -206 -242 0
272 222 201 0
286 -206 64 0
-272 -88 6 0
171 -260 113 0
111 168 183 0
50 160 -201 0
176 98 52 0
55 99 89 0
-137 -133 265 0
-44 54 125 0
-16 -238 -90 0
255 -175 -228 0
226 -75 9 0
-57 80 145 0
207 38 240 0
80 32 -56 0
186 142 132 0
241 2 -61 0
-204 -244 103 0
-254 158 23 0
210 248 -203 0
206 125 -44 0
-200 246 -86 0
-31 125 -269 0
-266 -235 256 0
115 -101 -151 0
-284 -132 -48 0
238 -56 136 0
-7 -117 -216 0
-57 -17 -66 0
149 -257 -102 0
-110 248 233 0
19 -111 60 0
-95 68 285 0
39 -251 36 0
30 233 200 0
-250 -113 -185 0
266 282 294 0
93 -277 204 0
-291 279 31 0
103 -114 -72 0
-127 -36 261 0
221 -243 -174 0
-283 -251 -246 0
-196 -106 -40 0
-181 -182 -10 0
175 263 194 0
-201 -211 -274 0
229 22 -280 0
193 239 48 0
105 -162 250 0
-76 129 155 0
110 56 -123 0
-236 56 19 0
166 282 -44 0
-167 235 7 0
58 160 194 0
-229 -58 227 0
-28 207 296 0
115 149 300 0
-26 275 195 0
17 272 293 0
295 -58 -76 0
22 26 88 0
238 -123 -70 0
161 -245 154 0
-44 41 248 0
54 26 -70 0
137 240 -93 0
-200 -143 -25 0
93 79 131 0
58 169 -252 0
217 105 96 0
249 291 -140 0
153 -17 209 0
-14 -87 -223 0
-241 -135 150 0
-201 -254 150 0
-271 83 155 0
-114 158 -147 0
110 10 85 0
14 -233 -279 0
-116 -107 14 0
90 -259 -235 0
-16 -98 -55 0
-1 279 222 0
-182 -285 36 0
-121 -123 297 0
161 32 34 0
299 -76 -276 0
16 273 56 0
198 17 239 0
-100 -189 152 0
87 80 244 0
128 -30 221 0
1 275 -3 0
-229 144 2 0
-221 -142 51 0
119 -256 139 0
-296 -163 -187 0
103 -298 139 0
-148 -216 213 0
20 14 -185 0
-257 43 -76 0
-6 -285 -5 0
29 -154 -228 0
-186 61 -201 0
-270 258 -226 0
-181 73 237 0
299 -24 -218 0
56 -138 241 0
39 273 -11 0
-143 -176 222 0
248 -186 -286 0
-26 -16 -118 0
200 -103 129 0
191 -175 -178 0
175 209 -262 0
140 290 -250 0
-29 1 -293 0
-18 -50 41 0
236 -214 269 0
-76 -283 -111 0
-292 -49 -191 0
-197 29 -228 0
295 -144 276 0
-200 219 -135 0
-149 -24 260 0
-110 -64 32 0
-242 -117 -226 0
-50 230 -286 0
215 -265 -80 0
112 -202 -8 0
-6 197 95 0
-198 279 54 0
244 -77 -155 0
-129 218 28 0
85 3 -48 0
128 253 299 0
33 -159 184 0
-49 110 -168 0
215 -117 286 0
234 -290 -63 0
136 -230 -285 0
115 -228 54 0
215 220 51 0
-148 83 201 0
147 134 -174 0
38 -146 41 0
71 -254 -88 0
169 35 58 0
-58 213 244 0
96 -226 -97 0
143 275 245 0
52 -143 -167 0
-151 165 251 0
173 -182 -220 0
187 -173 -162 0
5 103 -22 0
19 129 254 0
8 152 -52 0
84 -177 -36 0
267 191 285 0
-119 273 271 0
30 246 -89 0
266 -234 -57 0
-10 -174 103 0
-112 -106 143 0
237 241 -180 0
-153 52 -181 0
-24 -107 -17 0
-291 21 -237 0
-198 213 229 0
-19 -103 -141 0
142 -93 -224 0
39 -214 -110 0
-202 -173 3 0
-176 198 128 0
94 -276 28 0
-111 -87 187 0
-76 40 -55 0
-16 246 -103 0
88 -265 89 0
-19 26 -265 0
-255 23 124 0
229 -240 129 0
-125 -143 -90 0
-177 -7 133 0
189 -184 39 0
-72 121 94 0
-183 -119 185 0
-14 177 204 0
55 87 -219 0
-189 178 119 0
88 256 -136 0
54 -220 -243 0
230 176 24 0
112 -286 -245 0
23 -259 -224 0
133 -20 208 0
-89 111 247 0
2 92 192 0
-139 147 234 0
-290 211 65 0
4 -133 -96 0
-265 114 -169 0
-237 -83 49 0
-97 110 -151 0
-163 228 -243 0
-238 225 -241 0
-235 124 126 0
213 147 -101 0
154 -272 156 0
255 -138 83 0
-219 -122 203 0
6 -98 -274 0
-247 83 201 0
179 185 -225 0
-17 -121 -145 0
-72 -190 223 0
142 110 -266 0
14 -164 -207 0
170 50 204 0
-120 -59 244 0
138 210 94 0
-84 -88 67 0
205 133 -175 0
140 -116 -1 0
172 -117 -170 0
-291 -184 87 0
-131 220 24 0
-297 245 282 0
175 -32 31 0
145 105 38 0
-141 -169 -188 0
89 -226 109 0
180 215 138 0
114 166 -286 0
56 1 207 0
-291 36 98 0
186 -268 -44 0
190 77 -60 0
232 161 126 0
-190 -219 43 0
251 -227 -9 0
-169 181 184 0
-34 -60 -130 0
88 299 -285 0
-116 252 -203 0
16 -202 100 0
258 232 -80 0
188 -135 243 0
-57 -125 137 0
-254 -178 212 0
-71 -149 142 0
149 173 155 0
-148 -282 -62 0
209 -147 272 0
-233 -224 -29 0
267 -22 208 0
-277 -35 32 0
274 -175 194 0
32 -191 -299 0
-207 43 -265 0
-75 265 -282 0
204 -142 106 0
-99 -197 -91 0
-294 63 74 0
196 -173 -184 0
-254 81 -253 0
7 -126 29 0
59 225 98 0
277 -84 -145 0
-294 -85 145 0
-297 188 -38 0
152 131 -227 0
-4 -105 251 0
197 23 -272 0
-56 -133 -74 0
-79 273 31 0
-134 95 126 0
236 167 132 0
291 -115 -64 0
112 -71 -157 0
175 84 135 0
178 244 242 0
-294 -300 -40 0
26 -275 219 0
153 6 180 0
99 -190 46 0
-72 -111 -71 0
-140 65 212 0
77 -123 -89 0
-47 68 -135 0
274 78 -6 0
-64 69 -15 0
-215 -94 257 0
99 -238 55 0
20 157 -147 0
236 227 -209 0
229 171 135 0
-14 -92 -55 0
299 -148 -160 0
250 206 -24 0
-48 162 -72 0
54 -44 179 0
-102 254 -64 0
245 -182 216 0
-21 115 257 0
-252 84 276 0
-162 -3 -49 0
241 256 104 0
-70 101 -14 0
-200 -269 -231 0
147 101 162 0
91 149 -183 0
-190 136 234 0
-218 44 51 0
74 183 215 0
83 -8 -255 0
-71 -279 89 0
-232 123 239 0
-150 -245 -251 0
-5 -20 211 0
169 -201 -226 0
243 -30 231 0
243 -28 -239 0
4 159 -96 0
-27 133 -300 0
-10 -238 -242 0
-54 153 229 0
-157 240 -258 0
-207 297 29 0
250 16 -168 0
-164 223 116 0
89 -181 -8 0
-201 26 -218 0
-270 249 197 0
-156 229 -127 0
-171 16 -35 0
-120 -75 -121 0
-55 76 265 0
195 220 -110 0
-166 -36 -290 0
-20 11 -275 0
210 -281 163 0
189 -253 -159 0
-10 35 -270 0
44 96 161 0
135 146 -221 0
19 -273 -156 0
-70 97 239 0
216 -20 -186 0
28 -69 -173 0
-229 -231 -57 0
-285 187 -269 0
-163 293 -99 0
291 70 -249 0
-293 160 -149 0
-81 157 5 0
73 -203 154 0
-14 167 285 0
-221 -66 218 0
117 -106 1 0
-49 181 110 0
-240 -188 -222 0
-122 118 -116 0
48 -57 78 0
270 -88 -214 0
170 269 -298 0
270 -72 -191 0
-193 175 -71 0
222 274 10 0
148 145 203 0
-18 -226 -52 0
83 69 174 0
-131 -70 212 0
258 262 135 0
-97 115 229 0
-144 -106 -13 0
-184 186 -54 0
141 20 228 0
-48 148 -34 0
169 -117 -140 0
97 103 -243 0
-180 -279 -125 0
-36 -229 -274 0
-133 -19 69 0
247 59 -216 0
-11 -297 263 0
32 267 68 0
249 -188 45 0
-139 -198 -298 0
36 -17 -190 0
-271 -272 -192 0
11 -71 -254 0
-76 181 137 0
-24 230 251 0
22 160 218 0
-208 30 257 0
-173 50 -259 0
-72 49 -144 0
-137 211 -242 0
287 -197 212 0
32 89 -114 0
300 -68 -158 0
141 -148 -216 0
-297 -140 124 0
-161 183 -138 0
-8 -266 -39 0
189 -268 -263 0
-162 190 19 0
48 64 82 0
206 113 37 0
-241 128 -57 0
25 -191 117 0
-146 162 145 0
-36 -26 -266 0
-283 174 -183 0
-15 -72 -225 0
-7 -176 95 0
210 295 83 0
197 -143 -132 0
-231 246 235 0
-175 -221 -279 0
-120 96 -149 0
285 -108 -64 0
-87 -109 141 0
-15 -171 -118 0
-184 -145 -94 0
148 -117 59 0
58 115 238 0
265 248 78 0
-250 -230 -169 0
124 36 -270 0
-226 63 -20 0
-57 176 50 0
173 -211 297 0
-1 141 -22 0
116 -137 -266 0
-32 -139 -234 0
216 -57 -41 0
64 43 -238 0
261 -34 -41 0
202 -291 159 0
-210 155 -198 0
-195 228 295 0
110 265 -160 0
-111 268 93 0
275 -157 278 0
151 -172 49 0
-292 -274 -59 0
-174 152 150 0
162 103 -213 0
235 215 -25 0
-263 299 226 0
-74 -124 -284 0
246 -162 -277 0
35 3 97 0
74 113 -189 0
-199 140 -124 0
48 58 14 0
-17 -50 -174 0
-41 -243 99 0
-275 -41 -13 0
-220 -186 118 0
55 53 -232 0
-103 244 -205 0
295 231 -44 0
-160 -289 261 0
-230 -49 200 0
41 95 215 0
-195 247 -86 0
-190 -23 217 0
-148 39 288 0
184 140 -112 0
64 -153 204 0
187 300 -258 0
20 53 -107 0
-25 -207 36 0
-64 -168 -291 0
117 39 -189 0
-240 157 232 0
221 -71 295 0
300 266 175 0
-151 50 251 0
-123 -157 -59 0
-58 -15 50 0
32 -184 285 0
-152 285 -80 0
-87 -126 167 0
132 76 150 0
150 196 -50 0
-63 111 -77 0
266 -135 -201 0
-43 -22 284 0
-212 128 -213 0
-57 -127 78 0
123 -280 258 0
-181 297 36 0
-96 54 -225 0
26 -96 -149 0
291 -160 78 0
-53 -18 177 0
282 -210 -228 0
-61 137 224 0
-232 -22 264 0
-190 -28 49 0
-187 83 44 0
-43 254 -158 0
119 276 -7 0
272 -243 -95 0
102 31 171 0
132 -159 287 0
-249 -58 -124 0
-35 252 162 0
-243 -194 114 0
-187 24 240 0
-23 -99 -31 0
15 140 -230 0
-136 -240 -94 0
-31 13 -51 0
-22 -27 -60 0
112 44 251 0
184 -106 -170 0
-17 194 10 0
-35 134 -8 0
211 4 25 0
-29 77 54 0
-264 221 -137 0
-139 -138 -285 0
122 173 69 0
-178 9 218 0
257 4 -272 0
32 294 -12 0
67 -104 -202 0
226 208 191 0
-39 196 -77 0
145 170 -13 0
-9 -81 127 0
-270 46 8 0
-12 169 296 0
-154 186 -9 0
27 22 -284 0
226 -221 23 0
285 -57 79 0
-206 -141 -197 0
283 232 -251 0
-211 81 8 0
148 281 35 0
-94 178 262 0
-201 36 -209 0
277 152 167 0
17 6 -181 0
85 114 299 0
44 232 114 0
-144 214 -103 0
-42 145 -175 0
-159 177 -243 0
-122 -194 22 0
81 -212 -119 0
213 212 236 0
191 -258 -262 0
-190 -296 -185 0
64 -189 209 0
-283 -228 218 0
292 -86 -106 0
-102 273 195 0
248 99 84 0
-272 247 282 0
43 -92 202 0
278 204 -99 0
240 171 112 0
-25 206 194 0
49 -19 120 0
298 185 172 0
-276 -195 -147 0
186 130 -45 0
-104 -272 -128 0
-90 135 51 0
-50 149 120 0
222 -235 -163 0
231 196 -43 0
206 56 98 0
153 134 35 0
55 -151 144 0
-130 55 146 0
-166 236 -160 0
-105 179 284 0
-216 -82 252 0
116 -277 86 0
176 68 45 0
16 58 203 0
-196 -215 -23 0
292 -134 45 0
-196 -71 30 0
39 178 72 0
-22 60 -31 0
-83 248 124 0
286 142 34 0
-146 95 -265 0
-97 -205 -213 0
-276 -57 -114 0
-60 -181 -233 0
250 -3 163 0
275 -227 108 0
-103 -127 43 0
-291 5 71 0
-23 187 153 0
124 -99 -72 0
-123 -202 21 0
-201 47 -75 0
-292 276 -21 0
267 155 196 0
-253 -178 -46 0
-181 -217 -213 0
-275 200 289 0
-217 -10 -43 0
-299 -174 -168 0
-43 -239 51 0
-41 246 224 0
-182 -38 275 0
226 -245 -66 0
-82 -72 24 0
-75 89 -285 0
206 -128 -226 0
172 223 -21 0
-142 63 -90 0
-69 30 90 0
6 -299 -257 0
-43 -273 -52 0
176 188 -260 0
-222 -277 166 0
-123 -293 274 0
171 92 -21 0
-284 168 124 0
205 249 84 0
-238 -261 178 0
5 184 -244 0
-97 243 175 0
133 -169 -122 0
45 -127 -137 0
-75 4 217 0
255 275 164 0
195 125 4 0
159 206 -150 0
214 46 -259 0
-293 -128 120 0
115 -140 -165 0
10 217 69 0
-286 -113 -258 0
-266 276 173 0
-230 286 -119 0
-103 -18 230 0
-47 208 -211 0
-285 216 -82 0
298 143 -178 0
-193 211 62 0
92 -142 179 0
37 -197 -124 0
-264 128 249 0
-57 -61 58 0
274 -40 56 0
-265 58 -243 0
273 -171 287 0
-280 182 270 0
248 190 -136 0
230 -218 34 0
-6 -158 281 0
-290 266 190 0
25 -23 -290 0
-9 245 -68 0
-211 -201 -296 0
250 -197 -145 0
-106 7 -78 0
176 65 -51 0
95 207 -258 0
54 223 -147 0
135 -194 280 0
-243 13 234 0
-81 -110 136 0
136 -67 83 0
63 236 -116 0
-94 -98 -225 0
122 -14 76 0
203 -90 -185 0
-98 41 63 0
-105 -138 -159 0
-62 149 -154 0
276 11 -105 0
-129 -189 64 0
34 -238 -106 0
174 236 120 0
-268 26 -199 0
-11 -230 39 0
-94 90 172 0
26 -194 -3 0
-207 -79 -50 0
296 -3 110 0
125 147 130 0
-111 -297 -103 0
21 15 89 0
-198 -63 -78 0
-28 136 278 0
-140 -105 231 0
261 -242 -43 0
87 253 -210 0
277 -255 284 0
-161 -181 -110 0
-66 56 65 0
-171 161 -37 0
151 -217 237 0
198 -29 -162 0
288 200 -179 0
-73 11 193 0
256 193 46 0
-267 -36 -79 0
-52 125 -233 0
-91 234 75 0
169 -163 174 0
-249 -190 300 0
-214 122 200 0
-74 -90 84 0
-297 275 61 0
-196 52 67 0
204 12 -283 0
-180 -90 -42 0
167 -271 5 0
213 58 -257 0
198 123 135 0
181 -93 66 0
255 -133 123 0
-237 -125 144 0
-67 126 240 0
123 -188 82 0
-294 254 -142 0
73 -24 172 0
-73 -143 184 0
-232 191 207 0
184 -154 -123 0
65 207 -23 0
-276 -252 -246 0
184 -213 104 0
23 -28 -228 0
-163 24 108 0
258 -23 161 0
57 32 -245 0
-189 -29 -199 0
255 245 -173 0
-203 -286 134 0
-199 226 -105 0
270 -239 125 0
206 295 -8 0
-242 -137 -64 0
-33 -29 147 0
-68 -86 -278 0
-251 -233 -125 0
96 159 -60 0
-270 35 -60 0
-84 -173 -268 0
-42 57 -15 0
-32 -86 -91 0
22 162 35 0
157 -199 43 0
16 -4 74 0
211 20 -237 0
-144 198 -245 0
227 -283 -288 0
-12 160 -11 0
192 157 120 0
65 188 159 0
-268 -65 97 0
186 180 297 0
33 -86 134 0
-91 -65 158 0
-136 -241 -129 0
-66 150 -141 0
142 -146 -295 0
-174 -216 -118 0
-32 -104 -9 0
113 -148 68 0
-238 94 -251 0
263 -159 -228 0
138 94 -246 0
-79 -13 -295 0
160 75 261 0
110 -17 -71 0
-253 270 147 0
-117 133 263 0
137 -24 132 0
-67 -123 205 0
-86 148 -58 0
-232 39 -170 0
150 -280 212 0
284 -188 -63 0
270 -266 91 0
-50 -118 174 0
-279 -43 -119 0
-102 -125 -294 0
-231 -92 -2 0
204 253 28 0
51 227 -68 0
42 -153 108 0
152 167 -179 0
-249 -174 219 0
-83 158 115 0
-293 256 61 0
-193 133 83 0
119 102 223 0
-44 207 133 0
177 99 -110 0
226 -262 -182 0
-160 152 239 0
-113 250 107 0
-133 -63 141 0
204 31 213 0
-206 35 277 0
-289 -300 -202 0
-166 137 76 0
51 203 -240 0
-283 -201 -271 0
-197 157 -268 0
106 154 -103 0
209 -210 130 0
-176 108 -266 0
-254 -90 189 0
-44 -68 -77 0
-6 -102 -43 0
269 227 290 0
-134 41 26 0
-295 19 -106 0
-189 283 -279 0
-1 -235 -28 0
186 -259 -5 0
-245 87 76 0
-237 -30 233 0
69 -255 -173 0
137 -123 238 0
-161 -15 262 0
231 -164 -83 0
-67 256 -284 0
233 184 52 0
-107 -235 -271 0
-212 67 -295 0
26 -32 223 0
-255 -218 14 0
-143 27 147 0
-40 -227 268 0
-151 -88 246 0
295 -168 241 0
-173 -86 2 0
-237 -231 59 0
-170 217 -126 0
156 -93 277 0
86 -280 -262 0
200 -70 -50 0
246 191 -188 0
-50 -13 73 0
193 40 214 0
-27 149 -37 0
207 99 15 0
98 95 22 0
-219 59 279 0
153 134 151 0
-41 -63 -234 0
-60 96 16 0
-189 -8 104 0
27 74 -45 0
51 41 112 0
229 -294 -114 0
-242 96 -168 0
-24 190 121 0
-139 -132 -256 0
-162 -116 -238 0
127 -278 -66 0
-141 -171 270 0
187 -93 258 0
-170 -174 289 0
-3 -262 -249 0
-182 -173 -9 0
-158 239 -247 0
-64 -272 -251 0
-74 79 -105 0
83 20 91 0
4 -17 30 0
184 -32 -254 0
-262 -281 14 0
41 -29 -180 0
-219 182 213 0
-161 288 -222 0
68 -132 112 0
149 -82 -2 0
-38 272 265 0
21 113 -280 0
-13 -294 -242 0
25 276 -129 0
-36 100 52 0
148 227 -164 0
238 -9 265 0
44 108 52 0
98 -178 -175 0
-258 -108 163 0
259 297 -108 0
241 -149 -260 0
254 38 -259 0
-58 110 143 0
89 15 -231 0
166 -89 -16 0
-106 291 -242 0
-293 -69 -171 0
-277 -89 -165 0
-231 -27 -254 0
98 -208 -124 0
-139 -253 278 0
-30 -15 -16 0
164 68 -225 0
56 -196 -180 0
152 -110 -223 0
-269 -224 -232 0
168 -187 -162 0
88 15 109 0
-170 25 158 0
-270 294 -191 0
110 -199 -229 0
115 49 293 0
191 -1 -94 0
74 -158 2 0
-32 -248 156 0
-69 -280 -242 0
-11 -62 -212 0
71 186 -120 0
-267 270 287 0
-104 186 175 0
161 -264 165 0
-181 4 -30 0
50 -230 101 0
246 -291 128 0
254 -226 -35 0
86 -63 -66 0
-11 213 94 0
252 -262 -230 0
97 35 -38 0
133 -57 297 0
264 -28 29 0
-110 -252 72 0
108 179 231 0
32 -127 270 0
-104 -206 114 0
-288 -131 112 0
-108 -184 -101 0
-225 -173 90 0
-81 -148 149 0
125 -277 -33 0
235 -56 -249 0
-100 155 -142 0
-137 210 -215 0
-88 211 -247 0
297 -232 -35 0
46 -152 231 0
-240 -212 -109 0
220 -111 263 0
86 -42 4 0
-211 -106 204 0
7 166 -293 0
-239 -3 199 0
-195 -76 225 0
-32 119 146 0
-225 69 -216 0
-193 -124 -104 0
-159 89 -126 0
-98 -197 77 0
146 -261 -300 0
-7 197 -2 0
131 -255 -129 0
-289 -136 253 0
115 231 242 0
146 175 -41 0
-222 74 208 0
112 92 -232 0
-65 222 53 0
-70 233 -284 0
71 123 178 0
-79 55 219 0
84 -31 175 0
-33 7 269 0
-12 -95 22 0
-6 -117 110 0
-74 199 -197 0
-21 -219 -285 0
-140 256 139 0
-300 -78 109 0
20 -287 -83 0
-288 -108 56 0
-45 96 42 0
-182 195 -14 0
224 39 162 0
85 237 -269 0
-7 -223 -101 0
-248 288 -194 0
-259 -82 276 0
-181 -261 -100 0
-70 -235 -173 0
88 191 -230 0
168 -224 189 0
-108 134 -115 0
273 207 233 0
256 14 59 0
51 -255 73 0
139 11 38 0
-56 80 -157 0
152 -283 -202 0
248 -100 -139 0
181 34 -268 0
92 108 -193 0
-132 -104 -61 0
-299 -6 -172 0
-182 -176 -250 0
-295 -212 97 0
-198 161 87 0
-145 170 -245 0
88 -227 86 0
-61 -272 -39 0
-9 -228 -212 0
196 216 229 0
-241 -213 93 0
-120 -292 -152 0
99 39 80 0
-19 -245 233 0
80 -45 -201 0
-292 -17 281 0
134 209 -188 0
156 154 179 0
-152 -264 161 0
-5 267 109 0
187 91 -95 0
295 -80 -17 0
-4 -177 225 0
152 -53 300 0
279 -141 201 0
-236 -7 -96 0
-216 288 110 0
233 -59 180 0
-251 266 -238 0
211 -159 199 0
225 -196 80 0
-123 227 -229 0
65 -228 -299 0
-37 -153 -269 0
-143 -119 -203 0
191 275 21 0
185 149 -270 0
-146 284 -113 0
-33 -122 -94 0
-245 -162 -158 0
287 93 -220 0
-272 -154 167 0
193 243 -12 0
195 68 78 0
141 130 -72 0
99 -43 177 0
-256 145 -142 0
-133 -87 -212 0
-62 77 -221 0
-38 164 -266 0
21 93 -46 0
194 -138 270 0
87 298 262 0
265 -130 62 0
69 231 -88 0
56 -69 -13 0
89 44 244 0
151 218 146 0
244 -79 280 0
143 168 -109 0
-87 95 -15 0
-100 -109 160 0
-283 -258 -282 0
180 -45 -186 0
199 249 -155 0
142 110 253 0
-71 24 -185 0
230 275 -187 0
68 -118 187 0
-266 207 197 0
19 -99 275 0
265 -244 -263 0
-151 -57 185 0
-143 -117 91 0
-201 -228 -144 0
-105 74 -167 0
-237 -101 -269 0
-256 128 114 0
-34 -171 -268 0
153 -184 113 0
33 165 -150 0
216 213 267 0
-164 115 292 0
153 -56 213 0
-110 185 252 0
-188 251 274 0
-161 120 195 0
-168 243 -150 0
-147 249 -157 0
207 -193 -152 0
-38 48 286 0
89 -131 -59 0
190 139 -9 0
-10 59 -195 0
268 79 287 0
-178 -71 58 0
224 -161 -209 0
-27 -157 -70 0
284 73 239 0
-57 -9 220 0
96 168 148 0
-115 -167 179 0
-253 133 -59 0
202 211 -28 0
-108 2 164 0
48 -223 109 0
87 -260 -163 0
19 -263 -261 0
90 244 -28 0
-24 180 115 0
-46 -135 181 0
74 129 -10 0
145 -266 -254 0
-111 148 234 0
256 19 23 0
-175 -270 123 0
164 18 -27 0
151 -259 -296 0
12 249 -230 0
290 -287 -113 0
-248 183 -109 0
147 -140 -243 0
156 -287 71 0
-61 144 22 0
-257 230 131 0
-250 -158 238 0
-192 189 27 0
-255 -83 -268 0
248 78 -217 0
-168 224 61 0
-21 145 -62 0
-285 -202 -177 0
-44 -14 -146 0
-234 62 147 0
-36 209 288 0
228 -32 -41 0
-2 -32 -47 0
280 46 -126 0
-220 -285 -167 0
-1 92 95 0
246 10 -119 0
193 294 -42 0
295 189 -101 0
168 145 82 0
-138 -98 158 0
55 175 -294 0
-16 217 69 0
117 284 270 0
109 -284 -122 0
-259 97 -233 0
190 40 229 0
181 -226 87 0
-190 67 244 0
287 135 -106 0
-43 107 -73 0
45 263 -9 0
-104 244 259 0
-76 265 -24 0
-32 -237 108 0
-174 258 -41 0
110 -13 -28 0
-261 34 32 0
-225 296 243 0
70 -279 162 0
-29 -206 43 0
-133 166 -240 0
-147 -271 -257 0
149 287 -124 0
68 9 -145 0
-180 -105 221 0
-293 -289 -198 0
193 88 -122 0
83 118 101 0
-102 118 221 0
-39 200 -206 0
171 -162 -139 0
22 -176 -104 0
247 -126 -231 0
247 -14 -277 0
123 -276 -102 0
237 174 241 0
-263 -214 243 0
-218 -298 -247 0
-94 -17 -172 0
227 214 260 0
219 29 181 0
132 -148 -187 0
-28 223 32 0
-112 -207 -26 0
168 -286 281 0
-135 -126 137 0
261 264 -128 0
-6 92 -152 0
-194 180 82 0
-221 271 -161 0
160 -296 274 0
274 -159 96 0
183 100 223 0
130 -190 -106 0
-76 252 -173 0
-255 -286 65 0
-63 -151 4 0
-244 291 -50 0
94 42 214 0
-17 -285 162 0
8 236 173 0
207 192 68 0
242 -287 186 0
190 80 -78 0
118 24 -154 0
-135 45 -226 0
