c Random CNF formula
p cnf 300 1300
-276 -213 204 0
44 -95 -121 0
-128 9 158 0
-162 81 217 0
293 -180 99 0
-148 -67 68 0
162 191 -143 0
240 112 40 0
-118 45 171 0
50 -164 -197 0
254 97 13 0
-144 -227 158 0
-4 271 279 0
-131 -152 -278 0
-190 110 -107 0
156 284 63 0
275 -244 -261 0
16 97 -37 0
98 -203 163 0
-230 173 -208 0
31 -52 292 0
192 269 -37 0
-201 -162 128 0
-31 -229 -12 0
-225 -295 -25 0
283 -148 -122 0
-243 131 188 0
-5 -57 61 0
-88 160 290 0
194 265 -4 0
196 -269 -138 0
112 -31 35 0
-31 53 -109 0
251 250 73 0
-188 44 -190 0
156 34 -102 0
288 246 100 0
-283 110 295 0
-62 -90 103 0
75 -148 122 0
-196 -199 -213 0
245 134 132 0
14 218 284 0
78 -249 -176 0
18 180 -48 0
181 -26 67 0
253 -230 190 0
285 -274 2 0
288 -228 -196 0
-177 -35 -93 0
10 70 100 0
-129 -3 -30 0
59 36 -18 0
274 121 189 0
272 -213 185 0
297 57 -20 0
-74 255 155 0
-98 -117 272 0
43 -183 -3 0
-175 76 39 0
-168 -265 131 0
214 24 -251 0
86 -208 253 0
-196 177 55 0
8 226 -18 0
-240 -216 1 0
-23 180 -157 0
-292 84 158 0
204 -173 -72 0
130 -28 139 0
-105 -110 -196 0
-91 -75 -230 0
233 3 -53 0
-59 -247 -284 0
-102 -241 -222 0
179 -237 239 0
-171 192 210 0
199 -74 -153 0
195 -16 -29 0
76 -208 84 0
137 -156 265 0
-133 232 14 0
-172 103 -238 0
127 -71 -154 0
-39 -68 -65 0
-7 247 -149 0
-50 -47 -257 0
224 15 -218 0
127 -251 2 0
68 298 258 0
11 -99 176 0
25 -107 -76 0
-131 -175 -239 0
-12 -100 -182 0
279 -181 -261 0
119 219 274 0
-225 -285 -2 0
-102 -195 -295 0
140 -15 293 0
99 -202 -188 0
-156 252 -118 0
235 224 -69 0
-145 -23 -89 0
89 -74 223 0
-251 137 -259 0
90 210 264 0
-274 -239 133 0
-89 -106 -257 0
281 174 293 0
-250 -226 -237 0
113 229 73 0
-211 -259 136 0
197 -173 -23 0
116 237 -1 0
-51 26 -270 0
72 152 251 0
41 -250 -227 0
231 2 34 0
-257 236 -220 0
264 74 96 0
153 -204 -110 0
100 -47 -285 0
-60 -291 11 0
-185 -291 279 0
-273 197 -152 0
-248 156 15 0
43 -295 -12 0
83 -82 130 0
173 69 -20 0
213 -256 -170 0
-265 87 254 0
217 172 -59 0
175 -70 229 0
-259 -197 183 0
280 -247 170 0
-91 -262 67 0
-156 -251 103 0
49 -210 212 0
269 -30 -115 0
-31 -298 -41 0
113 12 255 0
-93 -291 -123 0
203 -17 123 0
-186 143 -247 0
18 278 -131 0
136 -140 -179 0
195 -25 241 0
-177 -271 -80 0
280 -151 86 0
-276 -127 265 0
16 -140 50 0
-114 -181 -160 0
-151 -217 -250 0
-117 -99 -9 0
90 274 -127 0
-241 -283 -182 0
-144 164 -58 0
222 -113 -77 0
-249 -2 -236 0
-31 8 -81 0
-165 -78 -119 0
172 -19 -214 0
27 239 -151 0
-122 184 94 0
147 89 113 0
127 -22 -26 0
286 -12 215 0
51 -205 245 0
-263 140 26 0
55 -93 -236 0
126 -205 32 0
45 158 -225 0
-104 -146 67 0
111 170 -54 0
-10 -86 -13 0
-24 -264 159 0
210 199 -47 0
-22 -111 126 0
-181 -76 -198 0
-110 -198 261 0
-193 -199 222 0
-225 -17 -120 0
-168 -100 -152 0
239 210 104 0
188 59 -253 0
3 -15 271 0
282 -157 209 0
-280 264 26 0
105 142 -174 0
-118 252 187 0
-115 295 -72 0
-162 47 -216 0
-67 264 -98 0
94 -264 -178 0
197 152 291 0
164 300 -202 0
109 -21 -280 0
-163 -272 95 0
-133 -235 -31 0
156 -2 -133 0
-105 204 -181 0
24 43 214 0
273 -262 -120 0
-72 -38 186 0
-170 184 -98 0
-246 241 160 0
266 -223 -164 0
15 -131 262 0
-196 -177 235 0
85 -146 274 0
235 261 244 0
127 -4 -65 0
-257 254 224 0
20 207 101 0
205 -282 260 0
-19 156 -161 0
241 -140 142 0
13 199 221 0
-225 -10 52 0
-198 -12 -139 0
91 -102 -15 0
72 107 -292 0
293 125 223 0
45 -107 -77 0
-135 33 -164 0
199 40 235 0
-52 240 93 0
-102 -196 -20 0
-96 47 -185 0
278 140 -52 0
91 -243 282 0
169 -160 43 0
-118 -147 -277 0
76 -5 270 0
-112 284 -54 0
-182 276 268 0
198 -35 199 0
-65 48 -61 0
-298 -84 292 0
3 234 -21 0
-247 171 -212 0
152 15 185 0
107 256 97 0
118 -272 -300 0
218 35 -103 0
-172 -52 -17 0
227 194 -68 0
-232 -154 -181 0
176 65 243 0
285 -71 -144 0
-228 -148 -119 0
-116 -166 -27 0
-108 24 61 0
-31 -126 -154 0
-278 -53 199 0
178 -88 -275 0
-230 163 151 0
71 192 -125 0
171 160 194 0
26 -273 62 0
225 265 -270 0
209 174 -208 0
286 -144 -181 0
55 140 20 0
-117 -130 -55 0
234 294 -29 0
-85 -230 -21 0
-258 227 172 0
-10 -74 241 0
157 133 -278 0
201 -234 188 0
28 82 251 0
-145 174 -221 0
32 25 -184 0
-258 -107 -12 0
229 -48 289 0
276 -6 39 0
129 79 67 0
-108 -178 73 0
-247 170 36 0
-259 -18 43 0
112 -73 15 0
216 -296 212 0
284 -210 -233 0
211 25 -295 0
-19 3 95 0
-137 -139 263 0
38 -156 -154 0
-54 98 59 0
130 -124 -165 0
103 277 -33 0
96 -36 -142 0
-93 -65 10 0
-220 60 27 0
289 -132 271 0
-284 -8 283 0
-58 -77 90 0
115 158 -84 0
-245 53 198 0
229 121 -278 0
-1 -263 -230 0
-72 206 269 0
-88 -132 268 0
-33 46 104 0
-119 13 -127 0
71 -189 10 0
150 -267 283 0
-68 236 -279 0
7 -159 271 0
262 -143 236 0
141 244 -9 0
-52 -138 121 0
173 214 -235 0
-99 50 181 0
249 132 -75 0
156 12 -211 0
-98 72 218 0
-151 36 -90 0
-4 145 199 0
-218 -290 -229 0
-207 -291 -1 0
297 232 -282 0
28 -155 -166 0
-151 173 -230 0
38 -15 289 0
-229 247 -15 0
-50 192 83 0
-112 -234 226 0
278 -246 294 0
23 -19 79 0
110 284 -258 0
-187 -107 -265 0
85 240 -290 0
-242 41 -8 0
-298 277 6 0
-53 259 -234 0
-48 171 -228 0
107 -150 -142 0
-36 147 -212 0
30 -76 -267 0
-255 -100 -125 0
157 -217 -22 0
78 -83 -230 0
-201 235 25 0
-146 291 186 0
123 -173 -134 0
-287 40 -13 0
179 74 -270 0
152 -90 -211 0
-54 -250 135 0
288 -224 -84 0
161 281 -64 0
9 173 148 0
224 165 111 0
74 153 -72 0
-38 196 -219 0
-188 -117 50 0
222 144 74 0
-17 -84 26 0
86 58 204 0
-293 -142 -194 0
135 84 289 0
-223 69 59 0
55 277 223 0
-14 -33 79 0
179 -241 32 0
-126 226 240 0
115 -228 -271 0
173 -36 156 0
299 -119 -267 0
-216 -178 47 0
138 -235 -175 0
-69 -148 207 0
212 -81 69 0
-40 44 -283 0
-76 -237 -37 0
-194 -40 -246 0
56 -39 -78 0
57 107 -146 0
-241 -225 -10 0
-56 112 -299 0
-274 189 -105 0
132 202 -158 0
-267 -48 176 0
-184 69 238 0
117 107 251 0
64 141 25 0
299 -285 24 0
190 -258 -172 0
44 215 -171 0
67 -267 284 0
-74 77 156 0
185 82 139 0
195 -182 30 0
-229 112 -280 0
80 -211 -66 0
-53 149 106 0
65 291 242 0
98 -181 238 0
103 -71 -191 0
199 -174 -276 0
281 -191 140 0
293 -205 149 0
55 -146 -255 0
278 272 231 0
143 -126 283 0
-37 74 -22 0
-183 -137 223 0
-171 166 -82 0
291 -5 19 0
219 -111 -125 0
-18 106 -163 0
-154 -69 186 0
-5 252 210 0
-194 189 -115 0
-281 76 -201 0
241 -240 57 0
262 -282 230 0
192 53 -201 0
48 -273 124 0
54 79 -39 0
176 -96 -116 0
206 138 13 0
-18 272 39 0
-205 -71 11 0
-117 230 208 0
-14 -117 204 0
-34 -188 -88 0
-299 -221 -245 0
-106 197 139 0
293 196 -268 0
-248 255 -198 0
-222 -3 269 0
-143 -133 295 0
-116 28 -261 0
77 -197 -255 0
73 88 -263 0
288 64 -91 0
-159 247 -180 0
-27 -69 209 0
223 226 -237 0
-196 32 -76 0
265 -205 -96 0
137 -264 291 0
49 214 -71 0
-69 -278 -228 0
-93 281 -45 0
17 -156 -211 0
117 16 -208 0
6 -233 98 0
242 204 -107 0
-89 -210 -214 0
269 -212 48 0
-186 -56 144 0
-154 227 -45 0
-256 274 -275 0
126 109 212 0
-177 46 -199 0
213 222 -81 0
-114 -188 -245 0
279 79 -212 0
191 -217 -51 0
59 -9 -97 0
146 272 166 0
215 211 216 0
54 -228 171 0
60 -105 241 0
-2 -49 165 0
-124 -282 196 0
-10 159 128 0
-250 -139 133 0
91 77 59 0
291 -75 211 0
-93 -162 216 0
159 -82 -14 0
-252 -197 -8 0
107 -37 -290 0
-279 244 121 0
-45 -260 190 0
15 244 1 0
234 54 18 0
65 240 -113 0
-72 -37 -282 0
277 -34 146 0
-121 224 80 0
49 207 191 0
94 -213 277 0
215 -160 222 0
39 190 241 0
-271 239 -283 0
-57 143 53 0
-143 -103 -32 0
-82 -73 11 0
68 -26 -194 0
96 94 283 0
35 -53 201 0
-253 275 -83 0
149 -256 -65 0
64 54 56 0
127 216 -142 0
23 191 -88 0
-157 169 -30 0
-264 24 -275 0
-216 62 119 0
159 221 -8 0
170 -17 -130 0
125 189 133 0
-287 82 265 0
-31 -222 -33 0
207 -62 146 0
104 -123 -87 0
27 -15 -280 0
218 -32 27 0
58 -22 -236 0
-109 83 200 0
-229 -137 -90 0
236 26 34 0
51 215 238 0
-75 220 115 0
-95 -204 -161 0
103 37 -17 0
-126 -101 33 0
47 -261 -227 0
238 -208 186 0
217 -50 218 0
-156 -123 1 0
-182 -137 -265 0
131 77 -264 0
-78 191 85 0
-174 -287 23 0
-230 -123 -135 0
-63 112 285 0
-114 -201 127 0
187 -180 221 0
-76 131 96 0
29 -80 54 0
-299 285 -26 0
-293 225 -110 0
-190 246 70 0
76 229 -84 0
-51 19 -28 0
250 103 167 0
-11 -167 20 0
-228 107 182 0
256 -287 -5 0
197 -155 274 0
-125 229 248 0
216 156 -237 0
-148 146 11 0
176 282 46 0
56 -11 -22 0
171 138 -90 0
-184 79 131 0
-296 61 195 0
166 52 71 0
117 -195 274 0
176 -245 275 0
20 -136 110 0
121 91 44 0
231 -151 34 0
193 -240 63 0
29 143 145 0
-4 268 263 0
260 128 276 0
-93 -207 33 0
127 7 130 0
-197 274 3 0
60 -102 -5 0
165 228 -269 0
-70 -138 11 0
-133 262 245 0
228 -143 -181 0
187 254 -23 0
-187 281 181 0
60 280 -143 0
-83 -178 227 0
-247 132 -16 0
-16 278 -112 0
41 202 -139 0
158 -54 236 0
-39 285 -32 0
-13 -50 -245 0
-285 -93 -208 0
-14 -227 144 0
160 -43 112 0
151 92 202 0
-106 -227 -26 0
-276 -240 -6 0
86 -20 -8 0
236 -150 260 0
93 -148 281 0
213 -240 -34 0
-181 249 117 0
14 -129 50 0
-292 -273 215 0
214 43 126 0
-242 31 217 0
218 -152 141 0
-118 -46 -28 0
244 -239 -267 0
46 169 23 0
-277 127 276 0
254 149 140 0
223 -254 264 0
-164 205 -294 0
-38 295 92 0
-259 195 -201 0
37 135 -196 0
55 -18 -62 0
175 286 42 0
-259 263 -110 0
-222 10 181 0
-121 -165 5 0
239 61 -34 0
-264 147 21 0
-282 -35 -275 0
146 107 298 0
100 -9 -287 0
-40 -204 132 0
223 -23 -30 0
-294 -159 -52 0
-219 -166 4 0
1 24 61 0
30 251 -52 0
42 -18 101 0
221 16 -72 0
237 -247 -227 0
-268 -211 18 0
-86 29 191 0
35 -45 249 0
-242 104 25 0
-245 -180 -153 0
145 -67 -134 0
-122 174 -49 0
-165 -108 -67 0
-156 -43 276 0
294 264 84 0
193 -232 188 0
-198 252 279 0
221 -42 -32 0
80 -210 204 0
-243 252 -20 0
-95 -232 -33 0
-47 209 -62 0
-102 195 -109 0
-15 245 60 0
138 -39 200 0
29 178 -134 0
153 -27 25 0
113 224 173 0
146 -24 -189 0
-61 99 -81 0
-174 296 -26 0
158 147 130 0
-224 40 185 0
-230 -171 95 0
-119 -122 138 0
-190 172 66 0
37 161 -32 0
171 179 273 0
136 -109 270 0
-84 239 75 0
-275 -185 296 0
-273 166 107 0
7 -45 -207 0
-283 -223 -176 0
-239 274 290 0
141 19 75 0
-18 234 -287 0
244 233 -159 0
259 -230 -2 0
-230 43 285 0
-239 -174 -5 0
-263 177 -82 0
73 -137 -144 0
-61 -260 -196 0
260 131 124 0
208 224 -294 0
-100 110 -164 0
71 -106 -89 0
-69 161 -77 0
199 -43 -290 0
269 288 -227 0
-66 -254 -26 0
5 -99 208 0
207 -219 78 0
278 62 -10 0
213 -126 -151 0
-73 267 125 0
121 237 208 0
-14 -77 65 0
-299 -210 197 0
66 196 30 0
-271 -68 -259 0
198 -281 -288 0
-61 111 -68 0
150 -130 39 0
-93 210 22 0
168 -259 264 0
-67 -144 276 0
-249 156 123 0
-275 231 152 0
19 222 106 0
190 200 67 0
31 -157 62 0
-269 -86 -166 0
298 229 -176 0
-30 -165 3 0
-69 274 222 0
-291 157 147 0
214 -23 271 0
249 294 257 0
-284 -276 252 0
100 70 -24 0
6 236 -81 0
-270 -134 -73 0
-241 199 -51 0
275 -31 219 0
209 289 239 0
34 -29 -300 0
-207 -143 -15 0
-64 -15 -69 0
154 129 -113 0
186 294 156 0
-22 97 100 0
161 38 -114 0
223 -108 -155 0
-204 -11 -200 0
-118 17 43 0
206 32 -16 0
164 299 18 0
-85 29 -46 0
209 -178 -152 0
168 56 18 0
108 55 267 0
190 -164 257 0
-146 -37 261 0
120 203 182 0
-40 -215 232 0
174 267 167 0
-133 295 251 0
228 -93 -295 0
4 -217 -231 0
-75 172 38 0
84 118 176 0
-116 214 -75 0
-240 -2 -136 0
282 99 94 0
-231 203 54 0
76 -21 -49 0
-47 -78 61 0
203 68 156 0
-112 262 -38 0
-21 84 -199 0
300 -63 -181 0
-105 189 265 0
14 134 -92 0
-166 222 93 0
35 -257 221 0
239 -192 255 0
248 -54 64 0
133 -76 -210 0
-81 -53 -119 0
153 120 178 0
-253 160 281 0
156 237 83 0
209 33 -164 0
156 -275 287 0
151 112 208 0
-242 -258 138 0
-108 86 244 0
248 -281 254 0
220 153 -240 0
224 245 286 0
231 62 175 0
-92 33 -206 0
158 279 -29 0
-87 42 -75 0
282 215 112 0
-149 237 110 0
114 -204 -190 0
-111 34 -53 0
-5 218 -173 0
-75 -251 -88 0
-136 -161 11 0
291 280 76 0
-278 46 66 0
-80 77 88 0
-241 59 -166 0
-208 256 274 0
66 48 95 0
-56 -65 57 0
137 175 277 0
288 150 268 0
142 -38 257 0
90 22 144 0
81 -117 -156 0
176 -202 -226 0
220 106 240 0
73 -15 162 0
103 22 63 0
-92 136 271 0
-207 -45 -147 0
256 -174 247 0
-26 -172 -229 0
115 244 -217 0
145 -5 -127 0
-145 291 19 0
-76 162 -132 0
-230 232 -297 0
-72 -155 -164 0
-271 146 -168 0
-95 -53 58 0
108 -69 -75 0
207 202 -21 0
-82 -141 -28 0
178 80 252 0
-202 -242 101 0
-121 24 -234 0
22 58 -53 0
-276 -85 -235 0
291 -109 -194 0
-118 284 35 0
124 129 -86 0
-173 158 -92 0
-111 -235 209 0
166 -288 79 0
-227 242 52 0
-117 -88 -147 0
-259 -286 -284 0
-25 189 163 0
-280 -262 -158 0
-19 188 -251 0
-255 -128 -5 0
-293 -51 -12 0
120 14 -240 0
32 129 -121 0
83 167 212 0
-3 156 172 0
-264 276 -60 0
105 17 219 0
170 247 202 0
97 -281 107 0
199 -282 -161 0
-37 -102 62 0
-132 -43 4 0
-31 246 -269 0
-283 100 -147 0
58 -29 45 0
-106 -36 168 0
93 -282 136 0
-89 -92 -33 0
-210 106 299 0
-247 33 256 0
123 91 205 0
-84 -111 188 0
59 270 195 0
58 244 282 0
192 223 210 0
159 229 -124 0
-236 -160 43 0
210 -78 -231 0
176 40 -192 0
-151 41 -38 0
-139 -30 192 0
-32 -192 -280 0
-230 243 192 0
-257 -92 -199 0
93 -191 -85 0
-22 -239 -265 0
203 -24 221 0
-208 -29 157 0
-80 192 29 0
257 163 -289 0
-185 -289 -223 0
-96 -240 30 0
-179 40 158 0
89 -117 -246 0
-106 75 -133 0
256 -272 261 0
-60 -170 -160 0
-151 69 191 0
-151 -217 117 0
-269 -245 -159 0
-45 64 190 0
-167 214 -35 0
-5 124 227 0
-291 245 18 0
200 46 58 0
-77 273 -230 0
274 179 -299 0
-70 104 -175 0
76 -293 80 0
-183 6 -110 0
-264 145 235 0
184 -96 273 0
26 -257 -121 0
-122 -211 125 0
11 -172 156 0
66 -276 -233 0
26 -29 -57 0
-20 -281 40 0
180 247 -141 0
-10 -93 -176 0
5 231 -117 0
-240 -160 195 0
-128 28 -169 0
81 -259 150 0
-172 298 198 0
-117 129 193 0
12 127 -33 0
273 230 198 0
-133 88 -127 0
-112 214 83 0
194 85 264 0
-113 -38 2 0
-86 -204 -225 0
14 -210 90 0
90 -135 -118 0
-1 -139 -265 0
211 -274 -260 0
-293 238 -65 0
-62 -114 -10 0
101 199 121 0
224 2 -227 0
-294 160 -2 0
-287 13 -128 0
-241 52 135 0
-136 -4 223 0
111 -106 -91 0
-92 248 -69 0
13 281 -88 0
-85 -287 49 0
-193 -19 32 0
-149 73 -230 0
-117 12 129 0
21 -237 248 0
-222 255 157 0
196 34 -165 0
274 -219 275 0
-173 -119 257 0
-56 -69 38 0
223 -78 -298 0
-74 118 209 0
-235 8 -68 0
-96 279 -48 0
113 31 111 0
277 67 -285 0
170 293 -243 0
-279 140 193 0
255 -111 294 0
149 76 204 0
-62 -63 39 0
-41 150 100 0
10 -277 91 0
117 74 -108 0
-70 58 286 0
215 -30 58 0
-154 17 -292 0
63 169 -183 0
208 -31 -27 0
84 193 126 0
-136 71 -106 0
-54 155 -225 0
-152 184 -131 0
3 -163 258 0
-41 -46 -169 0
-51 -210 20 0
-200 222 -118 0
38 90 263 0
-186 6 123 0
-141 -148 46 0
-94 175 -139 0
140 -173 66 0
291 -286 -133 0
-267 233 294 0
160 157 38 0
-251 -176 -190 0
-172 209 170 0
-249 206 251 0
151 -16 37 0
-11 -257 184 0
-240 102 73 0
-290 -244 107 0
-122 27 300 0
-126 -268 240 0
-58 -96 -201 0
-282 -164 206 0
-98 176 -226 0
117 241 226 0
-141 -27 -129 0
-300 75 175 0
132 60 162 0
-110 -281 216 0
-54 -28 117 0
-70 176 -23 0
1 -293 -47 0
-177 216 219 0
-109 187 -174 0
-168 -165 188 0
-222 -253 -279 0
20 -108 -279 0
-193 148 -69 0
225 152 -289 0
-288 -33 49 0
-150 35 54 0
-188 -41 145 0
-40 -145 195 0
-70 -223 -209 0
288 49 74 0
-116 -184 124 0
-11 194 169 0
-68 299 211 0
-22 171 231 0
-86 -98 288 0
271 -98 10 0
133 259 229 0
-126 269 77 0
-40 249 -284 0
104 210 195 0
27 -141 -239 0
11 -149 158 0
226 -51 195 0
-3 141 241 0
166 -284 147 0
-10 -49 103 0
65 173 -26 0
-191 -231 249 0
-259 65 -268 0
-201 -175 279 0
220 -65 35 0
61 34 -210 0
-295 -67 98 0
247 252 124 0
-275 93 -128 0
259 -196 263 0
236 -21 -192 0
251 219 -186 0
256 -115 196 0
215 295 15 0
-167 79 169 0
-182 -174 142 0
-237 114 283 0
300 204 18 0
28 295 -204 0
31 -169 205 0
129 -64 -173 0
66 74 256 0
212 265 -122 0
-298 169 -234 0
117 -175 259 0
240 -291 -32 0
125 133 -103 0
-190 -250 135 0
252 -118 -202 0
-85 257 -80 0
-150 -124 -20 0
-223 -278 35 0
36 -43 -59 0
179 177 -297 0
-241 78 141 0
-215 253 39 0
250 66 276 0
-25 81 -7 0
-246 149 269 0
-179 149 -78 0
196 147 134 0
-293 -262 -153 0
194 204 59 0
-24 -47 -118 0
218 -140 -174 0
-216 -272 -136 0
-286 -280 -197 0
-90 28 40 0
-184 51 -120 0
162 180 -103 0
289 148 -78 0
225 -166 -3 0
256 22 60 0
239 -75 -217 0
99 -176 179 0
211 92 209 0
-168 75 35 0
-25 291 -60 0
-230 146 156 0
86 -170 194 0
83 -37 -278 0
-184 20 -245 0
-279 -139 58 0
-61 12 66 0
-12 201 -138 0
158 24 -146 0
274 247 14 0
-269 -253 86 0
-4 271 -189 0
-212 230 50 0
-22 -261 281 0
-97 -200 271 0
171 -258 217 0
-64 -89 -77 0
-198 -31 226 0
-250 -220 -284 0
176 74 -161 0
52 -80 -272 0
-258 -178 97 0
-259 -40 -145 0
-50 146 -51 0
-161 112 238 0
-81 -58 59 0
-279 292 -81 0
-38 -182 248 0
31 196 -268 0
-263 -276 243 0
166 182 -193 0
225 172 -246 0
64 -225 -278 0
-258 163 -204 0
-158 -231 -108 0
229 -199 -226 0
-19 127 -131 0
249 -88 245 0
-42 115 291 0
-182 -8 -31 0
-222 -87 -143 0
-19 -235 -141 0
104 82 199 0
248 -135 -127 0
-7 -121 -160 0
300 -205 -177 0
-216 109 14 0
19 214 245 0
-142 136 -285 0
161 -164 139 0
194 91 -300 0
-289 -50 -89 0
-7 62 -169 0
-82 -244 -243 0
210 60 -267 0
-98 -58 62 0
297 235 -101 0
270 -157 271 0
-234 101 -269 0
-280 202 -226 0
-296 275 -177 0
-130 -167 -35 0
-199 -99 -176 0
109 213 165 0
259 99 79 0
-181 16 203 0
35 -195 -8 0
-270 -285 294 0
170 -206 -112 0
113 -148 247 0
-21 -144 -8 0
-257 -36 226 0
-105 -57 -263 0
70 35 29 0
14 -62 -221 0
19 143 210 0
25 292 -59 0
259 112 234 0
-60 -34 264 0
292 286 275 0
-124 123 -10 0
-92 91 -220 0
-51 8 140 0
161 10 291 0
113 -242 48 0
297 161 -12 0
-242 190 -89 0
186 -253 -86 0
57 -176 -25 0
-36 -99 -29 0
-205 181 -118 0
103 131 -156 0
-106 -214 130 0
-136 -78 -44 0
164 -143 78 0
-3 -109 -240 0
144 -218 -208 0
-59 -21 69 0
91 -179 -251 0
-105 121 -140 0
199 99 -125 0
-189 -22 -242 0
178 274 161 0
-293 19 -231 0
63 -265 -117 0
294 -30 198 0
87 -62 -126 0
-165 250 -76 0
-158 134 -54 0
-260 289 171 0
187 -109 -255 0
172 16 -241 0
-37 287 14 0
-82 241 -100 0
-282 12 -119 0
82 44 9 0
-52 -206 -251 0
-101 -172 -168 0
184 -122 250 0
-98 64 134 0
-131 244 -154 0
94 31 229 0
-140 -115 -290 0
-38 275 78 0
229 -160 -154 0
292 113 32 0
-277 -203 162 0
181 241 -59 0
-3 -33 193 0
-11 134 118 0
-5 -236 269 0
253 300 -75 0
-145 199 -35 0
182 125 222 0
68 -213 -55 0
127 232 18 0
282 -85 17 0
236 84 -41 0
198 -192 -199 0
285 -54 -297 0
-72 -189 -258 0
155 -29 -234 0
181 -280 -30 0
-124 267 229 0
-69 74 259 0
26 -15 269 0
-177 -114 -288 0
-15 -254 99 0
-177 37 -226 0
192 181 130 0
291 49 285 0
277 180 17 0
-63 269 69 0
107 -142 31 0
293 199 25 0
-188 131 -153 0
-153 40 -299 0
-149 -123 -205 0
298 -1 -94 0
18 -216 -49 0
-142 46 -119 0
20 -119 -238 0
187 138 -193 0
239 -25 -183 0
200 163 -279 0
89 13 -77 0
150 136 36 0
-54 -35 -44 0
164 248 77 0
-178 -144 -223 0
285 108 -162 0
-210 -285 76 0
175 -89 -217 0
-41 253 -144 0
-290 98 -251 0
82 -226 -179 0
-1 124 77 0
-52 227 -237 0
288 -49 296 0
234 -30 -68 0
15 217 227 0
-186 -224 271 0
174 -201 -62 0
-38 7 -129 0
-17 280 120 0
-116 -191 178 0
-67 -211 164 0
-144 -70 164 0
167 246 -263 0
111 216 22 0
-220 12 58 0
-289 -150 -23 0
55 -78 -227 0
-256 -252 -142 0
-153 -269 -105 0
152 -97 114 0
-118 293 265 0
-135 -102 137 0
290 201 -21 0
177 -26 72 0
-107 -264 -142 0
-113 253 -197 0
-218 -190 131 0
-234 6 -255 0
39 252 -26 0
14 -207 216 0
11 34 68 0
231 29 156 0
-198 -237 162 0
-291 -238 -195 0
-58 -218 -42 0
-266 -219 -178 0
81 213 -50 0
145 -41 -108 0
-25 -65 -92 0
-161 -271 -285 0
-183 49 -172 0
