c Random CNF formula
p cnf 300 1300
-161 6 -168 0
178 3 250 0
133 97 -172 0
-173 76 238 0
286 -56 67 0
125 -186 -103 0
208 278 -180 0
176 -54 -273 0
-203 -259 -132 0
-228 -283 291 0
196 -73 -134 0
-211 280 -260 0
208 -149 -253 0
-78 261 -289 0
11 179 65 0
-25 -187 95 0
99 -107 142 0
-194 -207 -212 0
-215 129 -259 0
90 -208 -5 0
12 158 -35 0
112 -202 -13 0
-37 84 181 0
59 122 -212 0
-65 -187 -113 0
-154 9 -64 0
138 -200 -144 0
258 52 -142 0
-117 -160 -154 0
41 292 -122 0
-209 -157 -210 0
62 -263 -106 0
-207 195 -262 0
-102 -13 -276 0
40 194 -256 0
-172 265 74 0
-127 -235 -91 0
215 182 284 0
-117 -202 -157 0
-84 290 151 0
207 185 -162 0
209 136 -203 0
105 80 -243 0
72 -5 135 0
-247 -270 -94 0
-161 107 24 0
-65 7 -136 0
94 266 -30 0
-145 -287 16 0
123 40 -193 0
-169 282 280 0
40 160 87 0
181 218 262 0
-151 -13 -224 0
37 203 -255 0
-292 228 -29 0
68 -28 -39 0
-154 -82 -108 0
-58 168 116 0
115 84 284 0
-194 -149 174 0
44 -109 237 0
95 263 -112 0
-18 -61 -156 0
98 -6 15 0
172 297 209 0
281 -175 -219 0
8 103 85 0
255 -201 180 0
-239 -199 -152 0
-194 6 -39 0
244 228 -152 0
41 -80 286 0
30 8 -206 0
126 266 -258 0
-202 94 25 0
262 -88 125 0
156 -133 -85 0
217 -62 241 0
200 -204 -275 0
149 -180 -29 0
152 -80 -191 0
-128 51 -249 0
-283 99 -296 0
-238 -275 -231 0
95 150 -200 0
122 -43 -237 0
-271 -72 192 0
-281 -188 158 0
14 -71 -219 0
-295 103 -141 0
-61 -49 298 0
103 137 249 0
-174 239 2 0
73 -282 -193 0
-226 196 -118 0
-238 -138 -166 0
-48 13 138 0
291 -57 -299 0
-218 -271 -256 0
133 223 116 0
-262 -89 -115 0
75 251 -296 0
-40 -168 -243 0
107 -193 -50 0
-48 164 -69 0
147 -77 -211 0
-227 -243 -89 0
-61 193 133 0
5 -87 -136 0
229 184 -212 0
-67 144 253 0
-72 256 -240 0
-111 -45 -266 0
136 -131 164 0
43 255 107 0
-48 -105 -95 0
266 -239 162 0
269 -75 151 0
257 -147 -107 0
296 268 19 0
-222 -33 78 0
67 -124 275 0
-237 -225 267 0
-195 292 54 0
80 -58 -106 0
-270 -26 -119 0
-123 -87 -278 0
235 -276 131 0
86 -174 -80 0
-105 135 -298 0
-288 163 237 0
-120 217 -258 0
134 28 80 0
-121 -150 51 0
-91 265 176 0
-26 -288 153 0
170 -182 150 0
280 -253 36 0
-62 46 -281 0
295 -275 -84 0
118 -38 121 0
-92 288 -96 0
88 252 -147 0
-264 299 58 0
283 -247 -87 0
-1 -198 -148 0
-99 160 -217 0
-188 -234 35 0
-90 -93 -147 0
185 152 -146 0
292 -63 -127 0
-45 -254 -28 0
-295 -255 155 0
54 46 -206 0
-131 58 -183 0
-104 75 145 0
-65 104 270 0
127 -170 297 0
-151 41 -152 0
79 -13 165 0
-9 263 -255 0
10 -31 -280 0
293 234 291 0
4 -264 118 0
-60 246 -195 0
119 238 44 0
-190 75 282 0
-108 -129 43 0
-63 -146 -183 0
192 160 -201 0
59 -10 -54 0
-76 112 -61 0
-32 -85 -101 0
-133 -245 147 0
-78 -218 -11 0
122 288 -147 0
169 -146 162 0
-272 258 182 0
-16 -56 131 0
228 -1 208 0
55 -162 62 0
262 -132 -162 0
280 153 -262 0
-214 -25 -191 0
-152 86 41 0
-251 81 129 0
-11 37 -10 0
-300 -112 -110 0
-229 -150 258 0
143 -284 269 0
246 149 122 0
107 216 103 0
-270 86 -264 0
-213 -154 50 0
144 20 130 0
289 -75 -22 0
60 46 265 0
-282 164 35 0
53 -85 -10 0
-195 50 2 0
112 9 213 0
-181 -184 78 0
-128 -249 -109 0
-130 41 149 0
117 156 -29 0
241 -124 255 0
-225 66 78 0
181 284 -34 0
56 41 -118 0
246 153 74 0
-202 105 179 0
129 -57 118 0
-113 208 70 0
143 44 116 0
-113 176 140 0
-21 -105 -172 0
-102 23 116 0
7 182 -9 0
189 -294 230 0
-163 4 154 0
-219 62 272 0
-291 -201 221 0
72 -65 -84 0
221 -103 -77 0
68 -41 -204 0
195 94 -179 0
242 292 -266 0
237 73 -84 0
-227 -205 158 0
235 -226 128 0
-204 258 -40 0
-73 192 194 0
-211 263 26 0
11 -24 27 0
6 54 -182 0
99 -256 139 0
-55 -73 272 0
290 -259 64 0
210 81 -26 0
118 -161 262 0
-275 -38 -84 0
-221 69 -259 0
120 72 1 0
-201 203 -138 0
-207 126 -77 0
77 -52 -148 0
-224 -210 -25 0
11 15 -207 0
-113 161 -90 0
-188 -14 74 0
-280 -181 180 0
-278 245 181 0
134 238 -267 0
-251 212 197 0
-173 130 -143 0
57 115 -296 0
67 130 235 0
53 -205 -201 0
-121 256 -226 0
92 151 207 0
-256 249 -147 0
86 -185 -50 0
-117 42 171 0
6 78 140 0
-87 178 8 0
128 -217 14 0
-134 -59 -97 0
280 -168 132 0
-215 142 185 0
33 52 118 0
64 245 -177 0
-113 -220 249 0
155 288 29 0
295 -105 -191 0
-113 -30 -75 0
167 253 136 0
99 -107 203 0
-224 -195 153 0
182 295 -243 0
13 -295 -157 0
-279 276 33 0
-80 -225 144 0
-91 85 264 0
110 -87 -151 0
238 293 229 0
-293 -184 209 0
-83 102 -28 0
47 -30 194 0
77 -91 -135 0
-234 -224 -23 0
-241 287 -54 0
39 -71 -86 0
171 76 260 0
-133 -230 225 0
-114 199 -288 0
-270 29 -43 0
-152 76 227 0
86 -64 -223 0
30 -73 -175 0
-233 94 286 0
66 107 -240 0
-95 69 -132 0
11 -42 117 0
-132 269 -116 0
108 152 -109 0
38 -188 273 0
86 -253 184 0
35 280 181 0
-159 -239 147 0
52 33 98 0
-42 204 -150 0
-173 275 169 0
-102 265 168 0
-146 28 -119 0
292 -252 103 0
92 -36 -77 0
219 148 -226 0
136 -233 164 0
132 75 -24 0
196 -234 23 0
248 23 94 0
37 -149 99 0
70 -176 -286 0
47 92 52 0
167 128 162 0
45 -83 -176 0
-90 10 -130 0
206 -297 19 0
-219 -178 -64 0
-159 -262 241 0
-60 204 -39 0
113 131 -263 0
-63 6 -240 0
-186 62 -244 0
-209 26 95 0
257 -71 -209 0
28 266 -62 0
-269 -16 121 0
-69 283 -63 0
31 -109 75 0
-300 -107 -248 0
-137 -71 -176 0
89 -158 -91 0
-44 161 -300 0
230 153 -249 0
30 -221 90 0
-247 -107 73 0
-158 -109 -230 0
229 82 -13 0
-154 -139 233 0
234 -84 165 0
-200 280 17 0
-222 266 273 0
50 -203 225 0
113 -65 -165 0
146 -75 190 0
-156 -271 -277 0
299 -22 259 0
46 89 -283 0
-117 -13 192 0
-160 231 129 0
247 -127 255 0
85 -20 163 0
10 -288 289 0
-286 -287 -64 0
65 -62 -243 0
183 243 -14 0
211 70 48 0
261 4 -94 0
-205 -266 286 0
-125 -151 213 0
-45 59 -196 0
118 -57 -62 0
-81 99 -185 0
158 -115 152 0
-71 -148 -90 0
3 -75 135 0
270 52 230 0
102 181 202 0
54 -179 192 0
-74 196 -185 0
170 -295 59 0
-230 -243 160 0
60 285 127 0
-290 116 51 0
-151 237 -74 0
179 45 92 0
179 210 -21 0
200 44 3 0
216 -162 -169 0
124 -208 100 0
7 146 -205 0
297 -283 -65 0
-67 -17 27 0
113 134 169 0
-148 88 261 0
105 -189 19 0
-160 -139 -272 0
-263 171 93 0
210 117 -57 0
-62 -91 -23 0
131 -140 -202 0
-146 254 -97 0
153 286 226 0
-117 -107 -4 0
-51 -29 -262 0
107 -193 -5 0
-29 48 214 0
222 137 -195 0
-223 300 273 0
195 48 72 0
-285 -241 -157 0
-8 210 -266 0
204 -61 -148 0
-242 -161 53 0
-43 -146 219 0
181 -202 -254 0
-205 75 -185 0
-180 -166 -237 0
-100 34 287 0
-178 284 18 0
-72 235 -201 0
-78 212 80 0
-117 133 252 0
-97 -281 32 0
-286 -171 -95 0
-142 211 28 0
88 291 216 0
270 196 -8 0
278 176 41 0
-108 117 209 0
-10 -230 -1 0
73 223 263 0
-265 -15 -225 0
-171 -292 -249 0
-28 -284 -153 0
214 48 169 0
-104 1 73 0
-16 281 -18 0
49 -55 260 0
-12 -299 17 0
-200 -110 -10 0
176 -142 197 0
201 224 284 0
-196 -277 176 0
78 269 66 0
258 293 -119 0
270 224 226 0
-178 -193 271 0
-29 99 -31 0
267 257 -139 0
-17 -110 79 0
-192 -85 -230 0
60 241 135 0
259 244 -37 0
172 -298 220 0
-107 56 -269 0
-117 -57 -190 0
37 -260 171 0
-18 -151 -248 0
212 190 245 0
-46 -201 182 0
192 239 -148 0
13 196 -258 0
296 -80 -129 0
-134 114 -67 0
274 -165 276 0
271 239 153 0
198 149 -99 0
162 76 -223 0
-81 160 -107 0
176 238 -46 0
225 -140 -57 0
-203 -60 -153 0
-59 164 -127 0
-151 105 -237 0
-65 -133 -175 0
238 148 24 0
137 221 -26 0
5 -26 275 0
125 -272 248 0
-293 180 264 0
-241 242 63 0
-160 -162 -276 0
-82 229 -140 0
180 224 -176 0
246 -221 -69 0
120 183 -115 0
-152 82 181 0
157 -11 -101 0
-49 96 -90 0
65 32 -94 0
13 138 15 0
-232 -8 103 0
164 -77 231 0
-267 67 128 0
272 -194 7 0
-71 113 198 0
135 44 -233 0
113 286 146 0
-173 217 218 0
-25 12 39 0
-279 -167 91 0
138 -97 -198 0
-19 198 -267 0
68 159 11 0
287 -118 -271 0
212 240 221 0
-138 30 -29 0
271 -118 -1 0
284 -170 -199 0
-284 -52 -82 0
245 15 -149 0
-64 72 95 0
-260 27 5 0
-182 228 298 0
142 -97 -83 0
131 -211 168 0
3 297 9 0
-1 130 -29 0
-249 -226 -202 0
179 -31 -30 0
-36 -97 6 0
14 211 -202 0
253 -195 -143 0
117 162 -224 0
87 -155 152 0
-142 -95 -209 0
283 -298 38 0
-15 -125 59 0
223 91 101 0
169 -261 117 0
-267 132 74 0
8 -230 226 0
-232 -113 225 0
30 33 85 0
-190 -20 122 0
106 140 -172 0
24 -83 98 0
-178 -146 99 0
-44 192 158 0
-100 -270 212 0
-219 -143 107 0
125 -164 -45 0
219 -134 40 0
181 -55 231 0
49 34 289 0
148 -122 52 0
134 81 -266 0
-42 -267 300 0
-15 247 -226 0
-135 291 120 0
114 291 170 0
-199 102 -33 0
-130 -143 36 0
181 16 108 0
-220 -82 100 0
-151 198 -249 0
-91 223 -236 0
-42 156 -131 0
-5 105 21 0
103 64 88 0
-170 160 -210 0
-248 -260 73 0
227 214 283 0
-250 -4 135 0
285 248 177 0
171 49 -177 0
-127 -235 -74 0
236 278 294 0
-172 -173 120 0
-100 -273 -93 0
67 203 -155 0
140 -174 -76 0
187 -293 225 0
84 -54 147 0
-258 76 -221 0
-145 27 -232 0
-150 151 -83 0
-183 33 -274 0
234 161 116 0
-211 82 -212 0
188 -208 -32 0
-212 228 82 0
20 -198 7 0
195 -188 -218 0
27 -223 31 0
214 277 87 0
168 88 -95 0
273 291 151 0
223 -167 -275 0
209 -154 18 0
168 66 39 0
20 87 190 0
71 120 -208 0
204 -224 -76 0
47 -250 70 0
-198 -200 -36 0
-159 -292 42 0
242 -289 188 0
56 48 221 0
-213 -248 -189 0
-50 -290 -60 0
126 -173 189 0
107 -70 136 0
-50 -42 126 0
183 -157 -195 0
283 -129 -100 0
261 -269 -194 0
121 149 21 0
130 111 269 0
-9 5 111 0
-71 -289 -161 0
-256 203 124 0
70 66 214 0
181 58 103 0
289 143 -287 0
-36 5 118 0
-82 -139 -151 0
-177 225 -271 0
-283 104 264 0
233 169 80 0
64 -21 209 0
-237 69 -172 0
169 164 -281 0
203 153 -183 0
-266 -265 98 0
-199 -100 -77 0
207 -46 -186 0
-53 158 -155 0
-46 94 194 0
-30 135 -157 0
-268 251 -103 0
-82 213 100 0
-296 186 -154 0
185 183 -282 0
-54 45 242 0
50 95 -271 0
122 282 63 0
62 176 145 0
-86 -138 150 0
-237 42 -286 0
-267 -223 -283 0
130 153 -36 0
-266 -126 -110 0
60 196 -17 0
-55 -252 2 0
77 -125 -178 0
107 -238 132 0
51 280 199 0
199 18 86 0
-113 258 -196 0
-202 -130 -281 0
-191 291 177 0
151 -249 211 0
281 289 166 0
77 148 -242 0
85 20 108 0
-52 -277 116 0
-270 284 -36 0
-17 187 51 0
223 -267 -240 0
-159 -274 70 0
54 -72 -279 0
87 227 -57 0
226 288 217 0
-80 133 -218 0
-106 -85 8 0
-147 -92 36 0
292 144 63 0
-216 151 -150 0
279 -271 -170 0
-8 148 170 0
132 257 139 0
5 -40 265 0
-284 81 99 0
-255 -250 -155 0
149 79 -211 0
9 -279 177 0
284 3 223 0
-8 -131 -4 0
-288 181 -45 0
-216 -152 199 0
-279 19 -191 0
-204 142 91 0
-157 120 266 0
-172 -162 -149 0
262 175 -72 0
-58 -14 -5 0
-9 265 -198 0
-77 -294 -59 0
-135 -148 263 0
94 15 173 0
-277 -171 -172 0
57 -32 161 0
251 140 -41 0
203 193 -4 0
207 123 255 0
192 -230 -246 0
176 -14 279 0
132 -111 -278 0
74 -246 153 0
-44 210 -58 0
86 177 -148 0
45 -255 269 0
-249 -106 205 0
54 -87 -134 0
95 -12 207 0
-74 -13 300 0
-16 94 -139 0
145 -115 -149 0
285 12 -206 0
-132 -174 -179 0
267 -1 194 0
232 123 -228 0
-243 179 246 0
-281 80 42 0
-249 -164 -269 0
-227 53 -22 0
9 144 -22 0
-215 133 69 0
-61 285 97 0
-242 -231 -82 0
-300 257 126 0
-239 150 204 0
22 -203 -83 0
-211 -227 295 0
198 156 -127 0
110 188 104 0
-189 -171 -219 0
215 -158 -260 0
60 -232 -162 0
268 69 263 0
18 116 275 0
-278 -210 261 0
-269 -70 62 0
-124 73 -44 0
-259 -42 -89 0
73 -105 -11 0
-273 -79 143 0
-163 -49 -126 0
-294 177 -77 0
176 -134 62 0
-111 5 29 0
99 229 87 0
-259 -110 -266 0
267 242 -25 0
-214 -211 -160 0
133 117 -227 0
119 -52 -38 0
-144 -25 213 0
-262 -284 67 0
189 112 234 0
-63 58 60 0
-161 -26 70 0
29 264 -136 0
65 120 72 0
-222 145 284 0
-269 -120 -21 0
53 -55 107 0
153 -1 48 0
-65 126 130 0
300 -290 -109 0
-83 242 -221 0
154 201 58 0
-189 50 -34 0
24 -227 289 0
276 -67 169 0
243 56 -41 0
-95 244 -164 0
260 -46 -83 0
75 -187 266 0
294 -160 -242 0
-66 -140 -138 0
-147 -173 -230 0
54 232 128 0
256 272 -209 0
51 61 288 0
203 32 -20 0
-137 82 -235 0
144 240 16 0
36 207 86 0
21 131 95 0
-148 -193 -162 0
280 -33 -78 0
145 271 -77 0
188 -125 294 0
-88 89 -209 0
-14 -294 -170 0
-124 -123 -92 0
172 -108 145 0
-3 -175 32 0
27 101 72 0
4 -197 -250 0
-89 -25 -229 0
157 147 -140 0
-73 -298 -206 0
-197 -94 -28 0
207 262 -159 0
270 245 -132 0
134 -248 -164 0
-231 -30 227 0
174 -196 -137 0
-254 29 -73 0
198 -113 -190 0
-85 6 102 0
-195 245 -16 0
-80 109 -203 0
186 -257 -104 0
104 129 276 0
-139 99 -297 0
-109 -79 -25 0
-232 101 -1 0
198 -126 143 0
-273 -7 -8 0
249 296 206 0
239 116 270 0
99 44 242 0
-180 291 -78 0
-284 -255 250 0
183 168 -212 0
-161 181 -60 0
-167 -74 204 0
-283 89 -252 0
-194 128 -120 0
249 149 247 0
53 -241 -59 0
-31 -174 -253 0
-110 -8 237 0
95 268 299 0
-219 93 128 0
277 -53 -164 0
290 -75 -112 0
251 -231 22 0
128 -166 105 0
81 -160 35 0
6 190 -185 0
253 -154 88 0
-127 -248 246 0
-272 160 -181 0
-150 -253 -73 0
264 47 -36 0
56 156 -157 0
183 243 -247 0
-250 -159 -123 0
172 265 -259 0
-98 80 -175 0
-250 20 128 0
76 -275 112 0
-71 139 -277 0
297 107 49 0
88 103 165 0
3 263 -275 0
-232 259 293 0
-175 266 -273 0
118 200 63 0
263 241 -215 0
10 289 119 0
-194 -73 -130 0
-197 -44 62 0
249 -230 -18 0
71 271 -242 0
-217 -266 -213 0
275 250 -193 0
-261 197 136 0
129 -265 143 0
-124 222 47 0
281 -134 133 0
28 103 57 0
-240 -59 17 0
28 -47 4 0
280 111 146 0
127 -65 80 0
-159 -102 -280 0
32 -237 87 0
100 116 -158 0
53 86 -151 0
191 200 211 0
284 116 89 0
-144 104 150 0
-49 -79 -274 0
-209 -128 -214 0
18 278 -210 0
-282 -126 -103 0
-270 -243 7 0
298 -204 -32 0
262 48 -255 0
-26 33 72 0
111 -208 196 0
-36 146 168 0
-145 -52 -251 0
-212 -32 -76 0
26 -256 97 0
293 269 218 0
195 164 6 0
-294 -265 -214 0
284 152 -122 0
-143 266 -174 0
-73 218 206 0
26 50 133 0
-165 -154 99 0
27 -109 -231 0
5 -146 198 0
-226 138 -288 0
-224 -119 -147 0
-231 -79 211 0
-57 -177 -248 0
232 11 90 0
259 288 -245 0
-194 190 152 0
261 191 -53 0
-246 36 207 0
-132 187 -176 0
149 64 255 0
100 -72 -125 0
266 147 -115 0
-197 -234 -62 0
265 142 185 0
147 36 299 0
-193 -291 165 0
-95 205 -177 0
-65 37 26 0
-188 -282 -198 0
-126 -237 -280 0
230 -244 237 0
-300 -238 -275 0
-74 215 112 0
-197 19 -54 0
-232 -254 -36 0
44 -131 282 0
-117 -167 100 0
-271 -209 11 0
137 129 18 0
-273 -92 -58 0
265 -164 96 0
161 -202 -189 0
-168 276 100 0
256 -265 218 0
-227 55 -126 0
239 -270 -74 0
181 136 4 0
-256 102 28 0
236 66 -238 0
-274 205 -166 0
-220 56 -246 0
196 -208 -42 0
-84 230 -35 0
-66 -83 148 0
143 132 -136 0
-265 175 123 0
-56 45 274 0
-83 150 132 0
230 272 -84 0
263 -280 -180 0
-69 -228 -274 0
94 -189 -146 0
77 210 -190 0
58 97 109 0
-93 159 -280 0
261 -296 -85 0
-267 284 -156 0
-172 94 -267 0
224 63 225 0
-202 206 62 0
10 254 -70 0
-286 -157 214 0
91 226 152 0
89 20 53 0
299 2 -200 0
-145 181 108 0
131 -14 -34 0
-64 -114 60 0
-271 -115 226 0
114 272 152 0
114 -261 -249 0
246 272 -221 0
124 270 142 0
92 -279 259 0
226 130 235 0
176 100 261 0
-122 -153 198 0
-35 186 -56 0
48 83 214 0
287 -209 -225 0
-234 -209 -228 0
-110 67 57 0
253 153 -127 0
211 19 -53 0
-268 60 -160 0
224 -262 275 0
-282 -284 -170 0
123 -160 -294 0
46 203 226 0
3 -300 252 0
39 -199 193 0
-90 259 -220 0
35 128 -218 0
267 -140 13 0
70 -199 17 0
261 284 183 0
235 173 -156 0
42 -114 24 0
-199 -229 32 0
158 -163 269 0
-97 -61 255 0
175 -99 243 0
151 172 225 0
-100 225 -85 0
-169 63 125 0
221 -146 239 0
163 250 -135 0
-295 67 164 0
107 200 -92 0
32 -107 254 0
-35 -264 125 0
-29 -217 160 0
-205 -7 -8 0
31 -205 214 0
275 70 272 0
206 155 -188 0
252 -296 206 0
-92 38 -49 0
88 -129 -93 0
45 -263 -66 0
-156 206 140 0
283 -129 -169 0
-183 112 -237 0
-5 -147 -15 0
47 -141 233 0
-162 -186 -35 0
92 -253 233 0
-207 78 -240 0
-272 197 138 0
263 196 199 0
-40 -36 -45 0
-9 -227 -274 0
-286 -197 21 0
218 63 6 0
211 244 -197 0
-190 242 -112 0
-160 267 60 0
196 204 -194 0
247 121 -180 0
29 92 -28 0
-241 34 192 0
-22 283 -15 0
-88 -48 -196 0
-99 -82 -43 0
-95 -200 32 0
-39 -188 154 0
125 209 -223 0
-126 -119 -300 0
179 99 257 0
-147 24 -87 0
71 284 -32 0
104 233 -205 0
136 -190 299 0
-1 -164 -93 0
-135 164 -182 0
-284 40 146 0
-148 -65 235 0
200 290 63 0
124 79 172 0
90 -27 177 0
194 -140 -229 0
160 249 46 0
-219 18 -203 0
-271 -300 296 0
150 -268 -130 0
155 -194 -237 0
11 -107 -187 0
89 215 200 0
93 160 102 0
1 -107 -113 0
-149 78 -111 0
-41 -143 -153 0
182 -113 -285 0
-35 24 159 0
293 147 159 0
-228 -295 233 0
-73 141 173 0
136 22 -166 0
-97 -261 -256 0
-191 184 -80 0
-192 -290 -10 0
-244 -161 28 0
-260 -93 35 0
19 161 -165 0
-129 103 -132 0
-188 290 55 0
64 -88 120 0
-153 31 -234 0
51 -283 -188 0
253 -295 -226 0
287 272 -274 0
72 -57 -141 0
-117 55 -40 0
233 82 -50 0
48 84 125 0
272 -262 158 0
59 -70 200 0
142 -117 -270 0
178 89 -2 0
-60 133 258 0
226 300 76 0
-109 179 -206 0
29 76 49 0
233 -229 230 0
122 -147 169 0
-196 245 -143 0
297 150 46 0
-187 121 284 0
-79 -247 105 0
-288 -224 104 0
139 41 -300 0
-215 245 -38 0
90 279 -180 0
70 -22 -169 0
128 -38 69 0
8 144 -289 0
74 -258 -289 0
248 -124 178 0
21 -209 202 0
209 -229 -271 0
231 -13 180 0
84 -175 -8 0
-299 -17 127 0
-264 138 295 0
-231 -109 -58 0
87 -260 -298 0
162 190 -282 0
-216 -96 -192 0
31 -88 -116 0
-278 -191 -205 0
285 -228 -220 0
283 179 98 0
-166 46 -265 0
-158 -85 291 0
-156 -70 15 0
-87 80 267 0
105 -241 211 0
-4 219 -159 0
141 -298 150 0
16 -15 295 0
-71 -175 -275 0
105 -280 -196 0
-281 -23 -45 0
92 6 244 0
57 141 135 0
-224 44 -225 0
89 -108 -280 0
-16 111 12 0
162 183 -32 0
246 -91 32 0
-144 -209 295 0
-223 -57 -282 0
-138 -299 110 0
293 76 -194 0
-195 -207 262 0
-220 229 296 0
-116 58 175 0
47 -69 171 0
177 61 171 0
-268 -226 91 0
-17 109 -116 0
-74 92 -192 0
264 -232 271 0
-291 -113 -266 0
-115 -79 160 0
-88 202 162 0
107 -52 254 0
-148 -179 150 0
206 -243 -211 0
-281 -114 -192 0
-71 -222 165 0
167 -277 -203 0
35 132 -195 0
-149 -75 -46 0
-13 -284 -153 0
-115 245 52 0
-134 13 -281 0
-272 -150 86 0
-116 151 276 0
-58 185 -75 0
-23 -10 -34 0
-112 -261 70 0
-64 -209 -128 0
234 -287 184 0
157 -37 -204 0
-227 170 -23 0
58 -126 -32 0
287 281 -83 0
156 -225 68 0
233 228 138 0
105 254 72 0
-228 -64 114 0
-81 65 -199 0
-15 132 63 0
135 -196 -106 0
62 -45 -201 0
227 128 -208 0
90 -1 -195 0
-286 89 -143 0
-263 82 205 0
291 -208 5 0
-120 261 -260 0
273 -157 -135 0
253 290 256 0
-77 -142 123 0
-49 270 -287 0
-141 25 -254 0
93 -115 164 0
-230 -13 195 0
-99 -129 -87 0
112 -121 39 0
-95 271 -212 0
23 -57 110 0
261 -214 -157 0
106 -196 174 0
-229 -279 257 0
-194 23 -260 0
125 139 118 0
185 144 88 0
29 69 -109 0
-93 212 42 0
84 -245 123 0
260 -51 259 0
-189 -180 -194 0
-295 281 -60 0
-108 34 -145 0
258 195 240 0
-109 -232 -268 0
-217 -243 79 0
-244 18 264 0
-253 270 -63 0
145 -26 256 0
-219 81 127 0
-213 121 -30 0
-196 160 133 0
-267 -24 110 0
205 25 -252 0
-5 -22 142 0
-155 -236 118 0
99 -18 175 0
-61 285 -170 0
176 292 27 0
-111 -300 46 0
24 -212 269 0
-152 -256 -87 0
-64 261 292 0
-244 8 19 0
240 170 12 0
130 -157 103 0
178 219 70 0
-179 69 228 0
191 7 171 0
-123 -138 -52 0
-141 -116 -129 0
273 6 -287 0
-96 -36 -232 0
-69 249 74 0
-127 -78 254 0
286 -231 62 0
-136 228 120 0
255 -269 232 0
278 -179 143 0
-149 157 -87 0
232 -184 291 0
95 293 -137 0
-251 -18 216 0
242 54 -200 0
247 -26 -208 0
-183 -146 -154 0
40 -77 -196 0
282 -280 -126 0
226 -60 29 0
-141 253 -287 0
-184 -241 -199 0
133 36 180 0
217 -224 -240 0
267 -5 -117 0
-205 78 100 0
93 -78 -180 0
-278 94 171 0
159 -19 68 0
-104 -46 29 0
-31 -262 159 0
143 -108 54 0
-25 26 249 0
152 171 100 0
-182 250 -13 0
-58 145 226 0
-95 -215 -206 0
46 199 264 0
30 -105 99 0
89 201 -222 0
-72 -75 53 0
-263 -21 -85 0
262 -4 277 0
