c Random CNF formula
p cnf 60 500
-11 15 -16 -24 27 -26 -6 -23 32 13 12 -41 -59 42 7 -49 33 -22 9 -53 -58 2 -18 -19 -60 -34 -5 14 -4 -1 52 -25 29 35 -36 20 -38 -39 -46 55 0
-27 39 33 -21 -22 14 46 -19 -32 4 50 52 -35 12 3 -23 16 -8 -56 13 30 2 44 -20 -28 29 42 -15 -47 11 55 1 -43 10 45 25 -57 59 -54 -31 0
-35 -13 -48 49 15 24 40 -21 -46 5 29 33 8 38 54 -36 -30 25 19 -12 58 51 39 4 44 -50 -11 59 57 -60 27 32 47 -18 -41 -37 45 3 -22 -55 0
33 -29 12 -37 -26 18 -10 -28 6 16 -20 -57 13 15 -49 -5 -53 11 -1 -43 9 7 3 -45 -17 -55 44 25 59 -48 58 -21 39 60 -32 -4 -38 23 -54 40 0
27 -43 55 -49 23 59 -44 50 -8 57 28 -16 -54 52 -46 19 20 56 -37 13 -53 6 12 -25 24 39 60 -42 -35 26 -21 33 -47 11 31 4 17 18 -34 32 0
53 -10 46 -2 6 41 31 -4 -30 18 -14 20 32 27 17 40 -19 12 -60 39 54 -51 -13 8 -55 50 47 11 -57 -25 26 -59 45 -33 -37 24 -38 15 58 16 0
51 -15 -9 -33 -14 -28 -59 -46 24 53 -41 -58 -57 -5 -43 -30 -29 -49 32 -21 35 -60 50 6 -31 10 -39 3 16 55 -36 42 8 19 40 11 -25 -34 -38 -22 0
51 -16 28 -34 40 -60 -37 -14 55 -9 -35 -3 -12 25 -15 52 -21 -49 -45 -39 -13 4 -23 1 54 -20 56 -53 26 -42 -44 -32 -22 -8 29 -6 11 27 -48 -57 0
21 -26 -27 -28 23 11 33 36 30 29 -49 -17 31 -42 57 -60 -10 54 1 -6 -12 -25 45 -7 -34 22 -46 -24 -18 -56 48 -4 -37 -52 53 -50 -35 -47 -3 15 0
43 -2 -7 23 34 -25 57 40 -51 -31 56 48 -37 -21 -1 5 35 29 -16 20 46 10 -13 6 36 -50 -54 27 32 12 41 28 22 60 -58 45 -14 52 17 19 0
-20 -8 -54 -12 19 48 -53 39 -45 21 -5 -17 -50 -25 6 59 -37 -23 18 -57 -38 -36 41 49 24 -14 3 52 27 -33 -29 -1 -43 51 31 -28 7 -35 22 -40 0
-33 32 10 -11 -45 27 14 46 -57 35 23 -49 -9 -25 58 37 -30 6 56 47 -4 36 -42 12 -59 40 24 1 8 19 -43 53 48 50 20 -34 -15 -60 -3 -31 0
-60 -46 -57 -34 -35 47 39 -17 -22 49 21 -42 -15 55 -33 -41 4 23 -6 11 -58 52 -43 19 10 59 -29 28 -1 40 -44 -3 7 -38 -53 37 -12 -45 -25 -54 0
-33 -59 4 16 -37 -3 10 -32 -44 -38 54 18 -11 -25 53 -20 39 -58 31 26 -22 23 -45 49 -8 56 -27 57 -36 40 -24 30 51 -2 -12 -17 -5 -34 48 -9 0
10 -31 15 -50 -29 -11 -26 -34 -6 -35 56 -44 -17 -19 25 -38 -1 49 -3 -18 24 47 41 45 48 -58 -42 57 32 -21 -4 22 52 -20 -2 -30 -23 -8 5 53 0
-53 25 52 32 2 -49 26 -18 -56 58 -50 37 30 41 7 44 -43 11 -57 10 -29 3 31 5 -54 -9 23 -6 13 34 -33 -48 1 -35 -14 -22 -28 -20 -55 15 0
8 -31 33 53 -3 1 44 10 39 -55 35 -14 15 38 -30 52 32 51 -40 -16 -47 -5 60 36 -2 17 -41 -59 -56 -37 29 42 -11 34 22 57 -6 50 46 -45 0
-11 54 -45 37 -41 -27 -40 -51 -5 52 -1 6 -47 -34 -18 7 -13 -24 39 2 -9 58 44 55 31 28 4 20 36 -16 -49 59 -23 -35 32 -17 -10 42 22 -26 0
49 -47 28 34 -58 16 30 4 23 -35 -55 54 43 -53 -10 -20 25 -12 -33 -41 -37 -50 42 -2 26 3 -19 46 56 8 -59 -31 60 -29 -9 7 32 -24 -17 -6 0
-6 -31 20 58 26 7 32 35 40 -60 45 -36 28 -2 13 54 4 23 10 1 27 52 44 55 -8 50 -53 -34 22 -49 -11 43 -12 39 -18 -48 -47 -38 -15 -33 0
-34 -30 -31 20 -52 -44 32 -36 -40 14 -7 6 -47 50 -60 24 56 -54 53 59 2 42 12 15 21 -16 -58 38 -35 -22 29 -9 -25 43 39 8 -49 33 -41 1 0
-50 -27 -25 34 36 -52 59 -53 13 55 -35 -29 45 22 58 -8 39 -17 48 -16 38 -31 -18 32 -9 -24 -30 -12 33 -40 -3 -26 -10 23 -51 5 -60 -37 -57 4 0
-47 8 -12 -10 -36 50 14 -18 -34 43 -3 -28 41 19 -56 -40 -6 -4 -59 -54 15 46 -53 -44 58 33 31 37 -38 30 55 39 -51 48 45 -13 -25 22 42 -1 0
-57 -24 -56 -8 10 23 53 -45 -50 -54 26 -37 48 7 51 -20 -16 9 35 -28 43 59 3 22 -47 -34 -21 44 46 17 -49 38 42 -27 -2 -58 -36 11 -5 52 0
-22 10 40 49 53 -5 54 -57 25 -26 4 -27 -34 55 6 31 33 19 60 -37 28 -46 -58 18 -44 -13 -9 -17 -23 -38 -59 35 3 16 52 43 -8 -7 -11 12 0
4 60 -55 20 43 -29 -3 45 -15 35 10 -47 -7 46 -28 -50 16 -25 -9 12 59 56 -8 -17 -32 6 -21 -58 39 14 11 31 57 -42 13 22 54 23 -44 -2 0
36 21 46 11 7 53 -6 -15 2 56 -33 -38 -24 -34 27 -29 25 50 20 13 -3 -35 -12 -18 -19 -9 -8 59 -52 41 55 -49 40 31 39 44 51 43 32 -10 0
35 -12 2 22 -29 33 -39 15 24 -7 -60 47 -18 48 -37 -59 27 17 53 -20 42 -58 41 -57 34 -28 10 19 -38 -44 -3 1 45 36 -13 -11 49 55 46 -40 0
-19 59 -52 45 37 15 48 -5 -30 -20 -10 58 -14 38 -6 17 -24 39 49 34 36 -8 9 -47 13 -57 -1 7 27 -42 -22 29 56 -26 60 -32 11 -46 -50 -21 0
2 24 27 -45 31 17 40 7 34 -12 43 3 -18 -58 -51 -6 33 -36 -19 -29 57 -13 38 -4 54 -41 -39 -15 -28 -20 25 -59 -1 5 -9 -53 42 -11 -26 21 0
-46 60 -40 29 -5 7 44 24 35 -41 13 -22 6 -45 28 50 -17 -34 -31 55 26 57 -19 36 -39 -10 27 58 -8 -18 52 -4 -1 3 -16 -53 -30 -9 -51 25 0
-50 30 -20 -42 52 -7 58 8 2 29 15 33 -13 51 -9 -28 27 -4 43 -6 -12 38 45 -21 -44 -34 59 54 -60 -36 3 47 26 32 -10 24 49 14 57 -40 0
-56 -9 13 -10 -43 -44 3 -45 7 22 -23 11 27 -1 14 -24 -36 8 -25 -52 -51 -41 -37 -49 18 31 30 -21 -2 28 -46 29 4 -32 38 -54 -19 -17 48 -5 0
13 38 3 20 -28 -52 -15 26 -6 48 24 -12 -34 -5 -14 -40 49 2 60 43 -8 -45 -37 31 -56 29 23 35 53 11 19 -32 -41 -42 -36 -59 -44 -22 -30 -51 0
52 13 -38 -11 -9 -25 2 -8 49 28 -58 -33 14 -46 37 26 59 -27 -53 44 -45 -47 -40 51 29 -1 -48 12 19 -22 -17 -56 -57 -43 24 31 35 21 4 6 0
-1 48 46 -53 -40 -19 -30 -54 52 -12 18 -13 3 -7 43 -14 -36 15 27 10 -37 23 39 4 17 -24 5 -9 22 21 56 -8 26 -29 -33 -11 -47 25 50 -16 0
34 -59 55 -46 45 -15 12 -28 -26 18 56 -5 -54 53 33 36 -47 -4 -8 -17 42 48 -50 22 51 3 23 -57 21 -35 -38 -27 6 43 -39 -44 20 25 -2 -49 0
-41 21 -40 39 43 -19 -49 -6 42 14 51 -59 -37 -34 44 4 20 -38 -29 -53 3 -8 57 54 18 -12 -50 22 -16 52 -23 -28 47 -5 -1 60 45 -36 15 11 0
-41 9 -42 -50 -57 -5 -21 -47 28 -12 -52 51 2 16 22 37 17 4 -31 -24 -33 27 19 59 -1 -29 -14 25 48 6 -15 7 -35 -26 34 -43 11 20 32 60 0
-17 13 11 -20 -38 28 -37 27 39 -23 -48 19 -22 -4 -24 -41 12 -10 29 3 -45 46 31 -21 25 43 30 47 26 -9 -40 5 -1 59 14 33 16 36 60 8 0
-12 37 -57 36 44 -47 -40 22 32 -39 54 19 5 25 14 -35 -59 -13 23 -58 50 -46 29 51 3 -56 1 -43 24 -16 31 -27 48 -7 34 -30 26 41 -53 -55 0
-32 -59 18 -13 -46 -49 -34 53 -21 26 6 -10 -4 -56 -28 54 43 -41 -57 -52 39 14 -8 -40 19 -5 29 -31 44 7 3 15 -45 -37 -36 12 48 -33 30 22 0
-12 29 -36 38 -58 -34 21 -54 -33 55 48 10 -43 47 13 2 17 -49 -4 -26 -3 -51 -5 32 53 24 -44 19 59 9 -23 50 30 28 -27 41 -52 -14 -40 -6 0
-20 3 -58 -49 -25 7 -41 -4 47 -24 -38 -39 15 -17 -43 -22 33 -5 -40 14 16 59 51 -12 -19 -28 -56 -30 44 -53 -27 -34 -52 46 42 -9 21 45 8 1 0
-35 60 -46 -10 -28 -13 11 58 51 36 27 -33 42 -9 -3 17 53 -7 -34 -31 -2 -43 54 55 -30 -19 8 -1 5 -44 -26 4 -39 -47 16 21 40 37 -20 38 0
-58 29 27 9 32 25 -50 -2 -16 -19 -60 -3 -48 -1 -7 -47 -24 -8 -56 -43 10 -6 -31 -18 52 -14 53 -33 15 -22 54 51 5 40 34 -57 4 -30 -21 38 0
-12 32 -11 57 52 9 24 21 20 44 31 19 -35 -60 -46 -27 30 -38 25 59 3 54 42 26 -16 58 22 -15 -39 -51 -41 29 37 -13 -34 56 10 -14 -5 -40 0
-14 -59 -19 15 42 53 18 1 47 -29 -20 7 -23 -12 33 -24 8 22 -35 25 -27 -49 46 -31 10 -48 40 51 56 -28 11 -38 2 55 58 -9 -17 50 -39 32 0
-54 -15 -18 36 -28 -45 -46 -51 -23 20 -49 -60 -59 56 44 -10 33 40 -58 38 25 55 -21 -48 -50 27 22 -5 -37 -32 39 -2 -35 -41 57 -34 30 -11 13 -1 0
9 18 32 -55 59 8 -14 29 -34 3 -23 -21 -37 2 -58 17 -33 -48 43 -44 -54 -13 7 -42 -51 -20 10 -35 19 38 -50 40 28 -31 49 39 47 -45 5 16 0
53 -46 -55 -8 17 27 50 -28 40 -5 -33 -47 -43 22 -59 25 34 -14 -23 12 -13 38 -57 24 -7 -48 44 -52 -3 -56 -19 37 -29 58 -10 51 -60 -20 -41 -49 0
-59 -18 36 -31 -37 -44 -30 -10 49 11 52 -13 22 1 46 -25 -50 -51 -3 -2 41 9 35 -32 -23 56 -19 26 55 -17 -43 -45 -47 57 -7 21 42 48 4 5 0
50 -27 40 26 12 -54 8 -16 -20 -2 45 -15 58 -36 44 -33 -22 -5 13 -57 42 55 -49 -28 19 -23 -18 -1 38 -32 -41 -60 -47 -14 -35 -43 29 -25 6 31 0
-10 -44 21 -47 54 -31 -14 18 -2 35 -37 59 -23 -3 50 -25 -55 -42 -56 40 -39 53 29 -28 17 -36 -20 -30 51 -52 -34 57 -33 -60 41 9 49 -4 -6 -48 0
38 -27 58 33 52 44 24 -47 9 49 -16 32 -45 3 12 -39 31 -14 -40 -28 -60 -17 18 7 56 -48 -30 21 -50 -22 -53 -59 8 26 -23 -15 36 -35 -19 46 0
51 57 -59 48 7 -41 -45 2 54 13 18 -16 -36 22 -15 -28 38 -5 -1 -8 44 -33 -42 55 -40 27 -19 52 6 -60 4 46 34 -25 30 -14 -3 -32 26 37 0
19 -1 -12 -36 -24 -50 49 -3 17 -7 26 -43 -2 -35 27 31 56 -48 59 -33 -34 -37 -21 6 -45 -46 39 -5 -54 -44 40 52 47 8 51 23 -15 4 57 -16 0
-45 -60 38 -9 -52 47 -19 -6 -42 -55 -21 1 -48 59 8 53 -41 -18 36 25 -7 3 14 -13 -40 -50 15 28 -24 -26 29 -30 -49 -44 56 -57 -35 46 2 -31 0
-9 -38 8 -26 58 -24 -13 -14 -57 30 -17 11 -19 -43 1 35 -16 59 52 3 10 -5 47 21 -51 31 -49 28 -46 -45 60 41 -20 -55 -37 29 -56 -7 -4 23 0
-8 11 35 -23 -10 -58 -40 24 20 -15 31 -29 -49 43 60 27 4 51 34 44 -9 32 -30 -33 -54 -12 -2 -56 -59 18 28 48 -42 55 3 41 26 -6 -36 -25 0
-12 37 20 53 33 -5 -41 -54 -50 14 11 -32 38 16 -57 60 31 -45 56 -8 -47 42 -3 35 -19 -39 51 -59 25 15 29 -46 -36 34 -48 2 -18 -28 26 30 0
42 -45 -47 -22 -41 -26 5 -20 44 -14 -39 -35 36 30 37 24 -51 -3 18 4 9 29 -54 16 55 23 -34 11 -19 -38 -40 2 -49 -27 -7 8 -60 -1 -12 -53 0
3 33 27 -45 18 -46 -13 35 58 55 -56 -41 -42 11 -59 -29 1 23 12 48 -54 -51 -36 4 21 47 -39 -34 -60 15 24 9 -10 -32 7 16 -38 19 -28 -8 0
42 -37 5 54 33 48 -15 -44 -19 -53 -26 46 -45 18 -56 -11 24 -8 21 -50 6 35 12 -59 -36 -13 14 52 -17 -22 39 58 23 30 28 2 -38 55 34 20 0
56 -46 52 -8 -44 55 16 40 -5 12 53 21 31 10 50 30 -51 47 13 -58 9 -29 20 -11 32 2 -14 -36 34 39 45 -19 59 -24 -41 57 27 48 25 -49 0
-58 18 -27 -8 60 55 35 -6 1 -5 -17 -19 11 50 21 -20 -42 -15 -26 36 -40 57 -22 -49 -53 28 -24 48 45 -2 3 -23 -16 -33 -7 59 -14 -30 54 -29 0
27 -60 7 -23 -8 -3 31 -33 -43 -11 -56 22 51 28 -57 -41 -47 -29 12 -5 52 -14 -10 -34 36 -26 -49 1 -4 18 -9 -17 40 -2 -35 44 50 39 59 -32 0
37 34 46 -32 56 29 -47 44 -55 51 45 -10 28 30 -16 -22 -38 -39 -48 -36 52 58 -20 14 -19 -6 2 -15 49 -50 -53 -43 -8 -33 4 -25 57 31 -13 5 0
36 -7 -9 22 -27 -49 43 58 -32 39 -40 -46 29 35 -55 13 37 25 -33 53 14 -17 -4 16 26 -19 30 31 50 57 -45 1 -54 -3 20 -15 51 -8 -60 -5 0
9 12 -15 37 -49 54 -25 39 -58 -19 -23 -22 2 33 51 30 -41 -16 -1 -35 38 -50 8 -52 17 -60 -40 46 -34 -26 10 13 -21 27 42 11 59 20 -47 -55 0
12 -36 -19 49 -9 7 -51 -45 -38 21 -11 -33 -15 10 44 -32 16 3 -2 5 -34 -52 24 -31 47 -40 14 -23 46 58 27 22 26 20 43 -1 -37 53 -59 -13 0
33 -3 -34 52 60 -15 16 21 -36 -9 -53 -56 18 43 -4 27 -38 -46 -37 25 40 -55 -12 35 -30 29 -10 17 -1 2 20 -57 -7 28 -13 -51 -45 -5 23 -22 0
-8 10 22 -60 -37 18 12 -46 -26 -27 -28 25 -1 -2 -38 43 53 -32 -52 33 -13 -5 -56 -29 -14 35 -17 -45 3 19 51 48 41 -49 47 -44 42 -23 16 -24 0
49 -23 32 54 -6 -29 26 17 -59 34 -35 11 -43 1 50 47 -24 10 20 -15 18 -25 39 -56 -7 37 19 -55 13 -40 -46 4 -60 -44 16 22 28 -3 -5 9 0
-52 6 24 8 -57 -42 59 -49 3 -43 -28 -19 -55 48 -29 56 2 -17 26 11 -39 -35 -40 -36 25 58 23 34 9 -46 -60 -38 -47 16 -22 37 -12 27 15 18 0
-21 44 -46 -53 -5 -43 -12 31 -50 8 40 33 39 59 48 3 17 55 2 -56 4 34 -38 57 -10 -25 6 -29 35 20 13 24 19 54 -18 -30 -27 11 -14 9 0
15 21 30 54 -42 26 52 -57 45 -28 11 -13 20 58 -19 -24 5 18 3 -17 14 6 33 -50 -8 36 41 38 -16 39 -53 9 10 -44 -34 59 -51 -37 31 55 0
-25 55 35 -22 -3 -30 -27 -17 42 34 -31 -52 -11 -41 -44 59 -7 50 -18 29 51 -37 -48 39 -21 -36 6 -10 43 4 58 -45 53 56 -40 24 -28 -14 26 8 0
-3 43 -18 -58 46 15 -52 -27 16 17 55 21 -48 -36 44 -40 37 8 42 -49 34 -14 -22 -24 11 -29 -30 7 -31 -38 41 35 -51 -59 53 5 -28 13 -2 -32 0
-7 18 1 19 -40 8 41 -10 -55 -17 -59 53 16 36 -50 9 34 39 -58 -44 -22 13 -26 -5 27 15 -33 35 -20 -11 21 14 -56 60 54 43 25 4 -52 12 0
-60 -46 55 -45 17 42 12 -20 18 -21 -33 -4 31 -57 51 -9 44 49 37 -19 -5 -1 -41 -22 -59 56 -6 -16 11 -8 58 -47 15 -28 -35 -25 43 -40 -10 -50 0
42 21 49 43 18 -38 9 -20 17 -33 -14 -10 -54 -26 35 -36 -27 -15 41 -56 -13 23 30 8 -22 -40 -29 -4 -58 -7 -24 45 44 47 -52 57 55 6 16 -19 0
45 10 32 -16 -46 47 -53 2 -23 -22 -51 12 -40 -31 9 36 4 27 20 -34 -54 -33 -43 -19 26 15 44 -48 7 60 13 -38 -41 25 -18 59 58 -57 -49 11 0
-47 42 44 -20 55 -5 -21 -52 54 -30 -57 36 -6 43 -10 33 25 -50 1 -38 -28 -53 48 -8 -26 -29 31 19 -45 51 -58 40 41 -24 13 -22 59 15 -37 -34 0
16 13 -31 -24 -19 -1 -3 -40 43 -25 -6 52 41 -48 21 -39 -26 -12 -58 -37 59 53 -57 32 -8 -50 -7 11 47 35 -17 4 56 5 44 -27 23 14 2 -55 0
-38 37 23 34 -51 28 -33 -14 -42 41 -11 -3 -59 -47 6 -5 50 24 -35 25 55 22 -31 8 -20 -10 -49 -26 -29 -46 -21 16 54 53 19 43 4 -40 45 -9 0
-15 -24 -40 -10 14 7 50 57 -36 -52 45 60 -33 -59 -38 -56 -29 49 -3 -47 -30 -41 35 43 16 22 -25 55 -26 46 4 -1 6 9 -42 -34 -5 19 -37 17 0
-7 57 56 -18 -32 4 26 5 -23 -3 22 44 11 -8 12 31 -53 -14 41 25 30 16 34 -49 20 40 55 2 35 -59 50 -27 19 -1 -38 -10 48 -46 -17 -37 0
-42 -22 -29 37 12 -49 2 14 57 -50 -25 -19 13 30 34 60 46 -5 -51 32 58 -20 16 23 27 -38 -43 26 -45 40 -24 36 -53 18 -6 -52 31 -3 -21 -48 0
15 42 31 26 51 27 29 35 47 21 46 -5 -23 59 -2 -14 -60 -11 24 28 39 -40 16 -34 18 43 -20 10 -13 54 -50 19 57 -7 -32 52 -41 9 4 36 0
51 -33 -19 -20 -29 -54 17 -2 60 11 23 10 53 -3 14 30 -27 -46 -57 -18 -4 -59 -34 -25 -13 -21 5 -24 31 9 47 -7 -1 28 52 48 -35 44 56 45 0
-54 -1 -26 -5 -40 60 -59 11 50 51 48 15 52 45 -6 22 31 -47 -41 18 49 43 55 4 38 20 21 -13 57 -29 58 -56 25 46 -53 39 16 24 -37 12 0
-39 24 8 -4 56 -13 -57 2 -34 -35 -54 -5 -22 49 53 52 16 45 -40 -31 -43 38 -9 23 7 47 32 -50 28 -33 48 -29 37 -36 -6 10 3 -27 42 17 0
8 30 32 55 5 33 -46 -52 11 -6 -23 17 9 -39 -27 -50 58 -2 -42 -49 60 15 -29 -19 -7 -24 -54 26 -40 -35 41 -22 -36 -18 -47 57 -37 -10 3 -16 0
10 -28 -50 39 -25 38 -13 -17 58 54 -33 55 -60 -29 59 -5 -19 -27 -49 -56 45 -31 -51 16 -41 -1 21 -6 9 48 43 7 35 36 40 -52 -47 -34 3 4 0
-39 52 29 -47 57 13 49 27 -31 -32 25 26 -7 -1 -56 -45 -5 15 18 -37 -43 46 48 42 -40 41 -55 -2 20 8 19 -44 -22 12 -14 -58 -34 -36 60 10 0
-2 53 -59 46 54 -49 -44 -55 24 45 -16 28 56 -32 -38 -22 58 -18 27 -10 9 -29 23 -20 -11 25 19 -57 -12 8 33 51 6 -41 -36 30 -31 -60 -21 -1 0
-46 44 10 -17 51 50 -55 53 34 -28 -60 8 39 -45 20 13 42 -41 -49 -36 23 21 38 30 -57 -4 33 52 7 -43 -25 -16 31 56 40 48 58 5 -35 -59 0
-1 -39 60 -30 -32 20 7 8 34 4 54 31 -2 -44 51 17 -37 -38 -52 -41 -21 -48 10 9 -43 -58 25 23 -18 57 -49 -35 -22 53 24 -26 -45 -14 55 46 0
-48 27 -55 30 -17 22 39 -58 35 20 57 21 49 59 -60 -19 45 -4 -41 32 15 -38 9 12 -18 16 1 -51 -52 47 2 -42 56 54 53 -43 23 25 -3 44 0
-33 14 19 27 20 -34 -42 -10 9 -54 -26 3 37 29 -32 13 18 -60 -6 12 -30 45 -28 21 36 -23 -59 -11 7 16 -40 22 56 -52 44 50 -57 -41 -51 24 0
20 59 4 36 22 16 -15 -28 -29 42 -21 -30 5 18 54 -52 25 -13 37 48 -58 45 -1 57 -24 -34 23 56 43 -46 -17 2 47 -51 -39 -9 49 7 11 -8 0
32 -59 -40 -54 43 12 16 -2 -11 26 -27 -13 -18 -28 9 -53 52 -45 -33 -3 -29 -23 51 6 25 -31 47 -36 24 -44 -37 -55 35 -10 -38 -7 -4 46 41 -50 0
-36 -13 -52 -9 -37 38 -58 8 25 -56 5 -18 41 44 -14 -51 57 -11 -49 20 -31 10 -54 55 2 27 45 -28 -34 -53 24 17 -33 -50 -48 -4 -15 -16 60 23 0
-3 -39 -58 -9 -12 -51 16 43 20 -24 21 -49 -56 48 -15 -5 -18 -6 -38 60 -17 10 -53 37 45 22 -54 23 57 44 -19 34 -59 -35 -41 -42 4 25 -14 13 0
14 -24 -1 8 -20 -32 -22 -25 -52 26 -57 -16 -6 58 -27 18 -35 56 45 15 -2 46 30 7 50 -21 -34 11 -38 17 51 10 19 -42 4 23 -13 -3 -39 29 0
-5 39 37 -38 1 -26 -24 54 32 2 33 -17 -16 47 10 -46 -22 -18 -49 34 -27 51 52 4 -15 -13 3 42 -9 31 55 -35 41 50 57 -23 -58 44 -56 -60 0
-19 45 -48 -47 23 -16 -55 5 8 9 -13 31 58 -32 -6 -11 40 -3 44 33 20 -56 18 -53 39 30 26 -22 -25 -10 -57 59 -17 -34 -14 28 12 1 -38 -41 0
30 -42 57 22 2 -36 -14 17 19 -52 23 8 33 27 -21 -59 32 -54 -9 -5 -37 45 41 1 7 58 3 43 -18 -28 20 34 26 38 44 -24 46 56 -13 -60 0
-43 11 24 -6 -47 -39 34 -17 28 -48 3 27 37 -7 -58 -16 29 -21 15 40 -56 -25 -19 -53 -5 -9 -4 42 33 54 -51 8 60 -55 38 -18 -35 -50 41 45 0
-1 -56 4 5 15 -46 57 9 -43 -12 -17 50 -48 30 7 -25 -19 -33 -35 34 24 28 20 -39 31 3 -53 37 23 -41 8 54 -16 55 -38 -49 -27 42 -40 60 0
-25 48 57 -8 39 -10 -59 33 41 -16 49 -13 -5 -4 50 60 -32 -47 -20 -2 22 -51 -6 23 -3 -36 -24 52 44 -27 -29 40 -37 45 -30 -34 -1 -18 26 -28 0
-22 19 21 -36 27 -26 -30 -49 -47 -12 -9 13 -16 -40 -3 -7 -44 -11 -32 25 -59 -6 -53 -58 10 -18 4 42 -31 60 35 -38 48 -20 39 -34 -1 -33 57 -37 0
43 9 37 -44 -42 -31 -32 -52 -15 50 22 -13 -53 -24 -51 28 -48 -3 8 19 27 58 49 14 -4 12 -10 -55 -21 57 -2 54 -45 -29 1 -40 -5 7 34 25 0
30 -39 59 -32 -7 -2 -24 -21 -14 44 50 -54 -4 37 31 16 55 53 60 -23 -10 58 -41 -18 5 -56 -13 -36 57 46 29 1 49 -17 -11 -8 27 51 15 43 0
19 -56 29 -57 -34 -51 -54 28 -33 -48 -53 -23 -41 5 50 -1 4 15 -18 17 58 24 -59 7 -30 -6 -14 -49 -11 -27 12 21 52 -42 16 -45 25 47 8 -13 0
50 52 -2 -26 -12 -30 -10 -40 -48 3 45 -28 21 -46 -37 -41 -18 32 7 56 -11 59 17 24 -22 -57 -15 -13 -35 54 -51 -49 36 -33 -27 -53 23 -8 -4 -38 0
-32 -53 38 -48 -1 11 7 -31 43 -54 -55 -30 17 -18 -59 -56 -50 29 47 -42 5 36 10 -46 57 20 -25 -3 -44 9 51 -21 60 -12 -22 -40 26 58 8 -45 0
31 2 -1 -44 -16 9 27 41 -12 -8 -57 -43 24 -58 -4 35 3 48 17 -6 -5 50 -54 52 -18 -49 -28 22 -34 25 -11 -42 23 -56 39 -30 -53 -10 -20 21 0
20 -11 -6 -13 -59 16 56 38 -12 23 14 32 -36 -34 -55 -22 -25 -39 3 -47 9 -5 -41 -17 28 60 43 29 2 1 44 58 10 -52 51 30 -7 -24 -54 -21 0
-51 -49 -50 -29 -40 -45 48 -16 -2 43 24 -59 18 7 -20 41 -28 -1 4 -58 17 21 -31 12 -57 -37 19 3 33 32 39 -42 30 -23 -9 -54 -36 38 34 6 0
-34 32 26 -33 57 47 -60 24 16 40 41 7 -12 -14 -31 -6 20 -27 -11 19 -18 8 37 5 -35 30 -49 42 -2 28 36 -39 -17 -38 59 -21 -55 22 48 43 0
-41 -30 -10 -50 60 6 11 -33 -12 -37 -45 2 39 -5 -15 8 40 -28 34 23 32 14 -22 -36 7 53 26 -52 48 -31 4 57 -13 49 44 -51 -21 18 -17 -46 0
-54 2 -16 -13 -10 -4 50 18 -6 -56 -34 7 -20 -49 -9 37 -21 26 55 58 -8 -11 -35 -30 -46 -43 -57 -24 -32 52 -23 -45 -19 -42 -38 22 36 3 48 15 0
15 -1 21 -4 52 59 24 -3 18 -32 -12 48 -53 16 49 14 -35 45 -23 -8 55 33 -56 -17 -31 5 -54 41 57 60 -39 -9 22 51 -30 37 29 47 42 -34 0
-19 -55 32 17 -58 44 -57 -34 -56 -3 -1 16 54 22 24 -33 59 36 -5 27 -18 -6 -10 21 23 -9 53 -7 40 46 -49 -52 -43 11 -42 31 -29 -45 -38 12 0
49 39 25 -38 41 20 11 40 5 -52 -57 44 -59 -21 -33 -22 -19 12 -16 28 24 -10 -17 -8 14 -47 -42 -50 45 54 43 -9 48 -2 29 -7 60 -23 30 56 0
-27 -54 8 -3 -5 17 30 -43 21 -1 26 47 51 46 -55 49 7 -48 53 -35 38 -4 -22 18 32 50 20 36 2 -33 -11 -34 13 -25 39 -56 -6 16 60 -28 0
-11 47 60 -59 -4 -15 10 -9 19 12 -42 24 34 -38 58 5 -56 17 -53 -26 18 -13 -20 50 -40 23 21 6 -54 2 -30 46 -33 52 57 7 -36 -35 -3 -41 0
33 -25 1 40 -34 28 45 22 -47 -31 -39 -60 -38 35 5 46 -30 15 -9 59 -43 -44 8 -27 -26 -48 -36 56 2 -51 50 52 58 -54 -55 18 -41 -49 4 -42 0
1 -9 26 57 43 -34 40 20 13 24 -41 -50 -28 -46 -4 -5 59 6 -3 32 56 58 -11 47 -39 -12 -10 30 -16 35 27 7 -51 -2 8 -25 -49 -44 29 36 0
-16 -48 -21 -8 35 20 -11 10 -31 -34 18 -5 56 26 -59 -7 40 54 52 19 30 39 -60 -24 -45 27 28 33 -37 53 36 -32 25 -44 42 -14 3 -58 -6 -41 0
-47 59 26 33 -10 40 -2 43 -45 -28 12 52 -57 46 20 53 -35 4 38 9 22 51 27 -49 -58 -60 -41 50 -44 -1 -6 -5 14 -25 -11 55 3 -7 -13 -19 0
-35 -14 -55 33 36 -60 24 57 49 29 46 -9 34 21 38 -5 11 -44 -40 -42 -31 59 -51 20 -54 30 3 56 37 -23 -45 16 43 1 53 -50 2 -19 -52 -39 0
18 24 7 -39 -3 -5 41 55 1 -46 20 -21 53 10 42 -56 48 22 25 12 -45 -8 33 -6 11 -59 4 57 -47 -35 32 -44 23 -2 -40 -19 28 14 52 38 0
44 35 -34 -6 13 -29 -54 3 -50 22 -55 33 -58 -1 37 53 32 -31 -10 59 -48 -17 -2 -21 28 12 -26 -36 42 27 20 -9 -38 18 -11 -40 -4 -43 60 -7 0
6 33 57 -3 55 17 -30 35 -56 -18 -53 -50 -1 23 -16 -42 44 -31 38 8 27 52 36 -4 -40 -2 -13 -28 39 -14 -59 25 -9 22 29 60 -15 -41 32 -26 0
59 14 27 19 3 -15 -23 -43 -13 30 53 -20 -1 58 29 -39 24 -60 -32 -16 52 18 -42 49 -50 12 -37 4 57 40 51 9 28 44 5 41 -54 -38 -46 -36 0
-7 -39 15 -60 -56 49 -4 32 5 -36 53 -18 13 -2 12 47 -29 1 26 52 -3 33 -9 50 21 -31 22 51 -30 -14 -23 10 -19 57 -45 41 6 -55 -16 44 0
13 4 -26 -36 -38 11 -33 -21 -10 41 -24 18 -28 -35 54 43 -39 5 2 27 23 -17 -32 50 -3 29 -59 -16 52 57 8 55 56 48 44 -7 -31 -60 22 -30 0
-45 30 -42 -59 13 -14 21 -25 -23 -49 6 24 -46 -12 -7 -10 -60 -22 17 44 54 28 47 16 1 -56 -3 32 -41 8 20 58 38 51 -15 18 27 -29 19 55 0
60 21 -13 46 -9 -1 -23 40 10 -28 -42 -47 -34 -14 8 49 -27 -48 -11 -5 26 32 58 39 53 -29 17 44 -54 36 -33 -35 37 -22 24 38 52 50 16 6 0
-46 -59 22 -52 -8 26 -40 58 14 -13 5 -34 -44 -27 20 -29 -23 24 -47 51 -19 1 -39 53 -12 -56 60 -37 28 -42 -15 38 36 -3 11 -17 57 7 18 49 0
39 26 -48 -38 58 60 2 -53 -52 30 -32 17 7 22 59 -44 -18 -19 33 -36 -49 -45 8 -40 -3 -35 -16 -51 -47 21 29 24 -6 4 -14 54 -34 -43 -9 -5 0
2 -8 15 44 -48 -56 -21 24 -4 -16 22 -51 20 -42 -13 -43 1 55 -11 60 -9 -31 39 -14 23 -25 5 -27 50 -19 -3 30 52 41 -49 28 -58 -33 7 -29 0
24 -59 -39 8 -2 15 51 -58 29 -13 -26 33 18 10 42 17 1 -35 -7 -23 -16 -57 -38 -19 56 5 53 48 -45 -52 -32 -47 28 40 25 -46 54 -27 -11 6 0
-42 39 9 7 -35 27 5 -56 -48 16 1 -24 -20 -38 28 -2 -43 -58 -23 -33 -36 4 -30 50 -51 14 -22 -53 -46 55 41 54 45 21 -34 -40 6 -59 25 -17 0
6 52 12 51 -41 35 3 45 34 -44 -23 -48 54 -43 40 33 -9 2 -30 53 5 -60 14 29 20 -8 27 26 46 55 -16 36 -7 19 -17 -24 -13 -58 4 21 0
-5 37 19 -39 -40 57 -36 54 29 13 59 3 -42 -30 -8 28 -22 -7 32 21 -33 25 -23 14 34 49 12 -27 50 26 -16 6 41 43 -11 20 17 9 53 -1 0
-51 54 -42 -13 8 28 39 -37 -7 52 -6 -26 59 -40 31 36 43 -20 53 -46 32 50 25 29 47 34 -57 -35 -44 12 -27 -23 -19 -56 -9 30 5 45 49 -24 0
59 12 14 40 25 -2 18 -47 7 44 9 52 16 -39 -3 -34 57 -30 54 -42 5 6 -60 56 37 38 35 31 -17 -20 -36 -19 -51 -50 26 -32 41 -58 -4 -33 0
35 46 -28 -55 -34 -52 -12 -10 -31 -60 45 36 -11 27 -51 -23 -1 41 20 39 7 -38 -16 29 -6 13 3 30 -5 58 -56 40 17 -24 8 44 -18 -22 57 -15 0
-49 -24 38 -55 5 27 -10 -8 -46 15 -18 28 -53 -6 25 21 -45 -20 47 -30 12 -51 2 -59 11 -52 4 42 9 58 39 -29 37 7 -17 -19 1 -60 -14 -36 0
-11 -38 52 19 -7 49 8 -27 16 9 55 51 -40 10 57 56 20 -2 42 -53 -22 -54 -18 -33 -37 44 -23 -6 -3 45 5 48 -26 12 -29 59 34 -32 -47 -24 0
-39 6 60 -50 5 -29 -10 48 -4 -8 -32 37 -42 -36 11 -46 -23 44 -7 40 -45 -25 2 28 27 -51 -55 -56 34 -30 13 -43 49 17 58 16 9 20 -38 22 0
-44 -11 -56 2 8 27 54 13 -58 37 -40 14 -9 4 32 34 -39 -1 -15 17 6 -12 -35 25 52 47 -31 -48 51 7 57 -29 42 20 -33 -60 24 23 55 -45 0
-42 -59 37 -11 -8 5 -50 57 -27 -43 3 -44 18 -9 -15 -46 24 41 -51 53 19 17 52 7 35 -25 21 -12 26 -1 6 -38 -34 -28 -58 31 22 23 -45 40 0
44 45 -49 28 35 -38 -43 -53 60 48 -13 -18 -23 -3 25 -27 19 59 -31 24 40 16 -39 4 -29 36 -14 15 47 5 -26 -58 2 21 12 1 42 -34 57 -17 0
-54 19 47 -38 43 -18 -14 -33 -36 20 57 -4 -16 28 25 -39 -10 -58 -32 -30 -3 -2 51 -60 -44 -46 -13 -31 -9 23 7 -27 -24 -56 59 35 21 45 6 -42 0
-39 -16 -8 -20 13 38 -36 55 44 45 7 24 56 -21 -33 -43 9 -34 3 -12 26 42 -40 -46 -4 57 -1 -10 -35 23 29 -52 -51 31 -37 18 -15 2 14 -25 0
27 -58 -49 51 54 42 34 -10 15 -36 9 14 -53 -32 -60 18 23 -16 -30 -13 35 11 5 -41 -56 -46 -24 -33 -8 -21 59 -2 -7 43 -48 -17 -26 1 -57 -28 0
11 -46 6 33 -25 -37 9 -27 -13 23 -44 -56 31 21 58 18 -53 -43 7 19 39 -41 -26 -42 -51 -32 8 -54 30 -48 -38 -59 -45 -12 -14 47 -1 60 -5 20 0
-21 57 -55 -16 49 13 -36 -41 -10 -59 9 23 -3 -18 5 27 -58 1 40 -39 34 -25 -46 51 28 31 -33 11 53 24 22 2 -48 20 12 6 42 30 -29 4 0
-48 40 -21 18 -20 60 15 -46 32 -30 -50 -2 39 -52 47 28 -38 -56 43 -9 -14 -57 -5 -12 16 -53 -31 -3 -49 -8 23 -25 -11 -34 4 -22 -35 55 -19 37 0
-16 33 -23 12 -50 46 -3 20 -39 47 30 36 -5 -6 9 60 -4 37 15 -1 28 -2 25 -31 18 59 40 -8 -57 -26 -11 -43 49 24 -7 27 -19 17 -29 -44 0
-1 23 -44 -26 -27 -58 51 -35 42 -49 -19 2 -59 6 29 -8 -22 -11 54 -4 3 -52 -50 24 -40 21 7 12 -14 -16 -38 -41 17 20 -31 36 -37 -32 -10 -33 0
-52 -8 -21 24 10 55 -23 2 60 -45 49 -26 -53 15 9 -7 -6 27 46 28 25 5 -20 -13 -40 -56 -58 -39 -50 33 -16 -41 -42 11 36 14 1 -17 -12 37 0
33 42 -26 13 -52 44 20 14 -51 -53 -16 -35 -18 -6 43 29 -55 41 -37 5 2 -24 15 7 17 -31 -10 -34 54 50 56 4 32 36 48 22 12 -49 -25 58 0
-34 -25 -30 5 -42 -28 46 -59 9 43 -21 1 -41 -20 8 26 31 57 -36 58 -15 49 -32 -17 2 29 51 60 -11 54 -48 10 27 19 7 -12 -50 -22 18 -40 0
-58 -10 3 15 43 48 -25 12 -23 -21 -35 18 -55 22 9 -53 32 16 47 39 -26 -14 -56 -54 -13 57 46 29 40 33 -31 51 38 -7 -20 -2 -5 30 -60 52 0
-59 28 57 -5 22 -36 -34 39 -48 47 54 -23 24 -26 17 25 18 19 40 -46 27 -2 51 -10 -3 7 53 -43 16 11 30 -15 -58 56 -21 1 38 -55 -50 37 0
42 -10 2 37 3 -1 9 -26 22 50 -54 -44 -30 18 -43 12 21 59 29 -53 38 52 -47 -19 11 34 -28 -55 32 -4 -31 -7 20 -14 25 58 27 -46 6 -33 0
53 -12 -32 -46 -49 -34 -45 -15 54 -31 -47 -59 7 8 -11 -18 20 -19 -57 56 28 -16 39 -23 22 9 -5 2 -44 51 -58 -1 6 -13 50 14 -26 4 -41 -10 0
-4 31 -46 19 39 -6 21 23 -2 56 -34 51 1 -3 7 -13 27 -18 -52 -35 37 -32 44 -36 -28 11 54 55 -48 58 5 -45 -47 -40 16 20 10 57 -60 41 0
15 -12 -43 -2 -27 -35 49 26 32 60 -44 18 39 -8 -46 23 37 47 4 40 -20 41 -19 -21 42 31 -1 -17 38 -3 -9 16 25 -50 -52 -57 -55 -33 -10 30 0
49 -16 23 5 -56 -43 -3 37 -14 52 36 50 -55 -9 -51 57 -21 39 60 -59 6 42 20 33 -1 -48 45 -17 47 -29 -27 -53 46 -32 30 -12 -13 -11 -40 4 0
-55 32 54 -38 4 -31 -3 39 36 47 -12 -23 46 -51 44 58 50 19 -57 -56 -10 -2 59 -48 -53 33 -21 -52 -22 11 -5 -25 -34 -27 16 8 -30 -35 37 -7 0
-26 15 44 25 -6 29 27 43 10 11 -30 -55 -57 24 34 42 45 -56 -48 47 -41 5 13 -37 51 49 -35 -38 -22 23 36 -60 46 20 54 18 -52 -33 -21 -12 0
26 -22 47 57 -43 -6 30 -56 35 1 5 -10 12 42 -20 -41 -28 -33 48 46 44 -13 4 -39 49 -38 34 -36 -7 50 31 52 19 54 -9 -59 -37 -51 -2 18 0
-38 52 -14 18 34 1 -21 -5 -29 10 33 25 44 51 17 -46 -19 40 -24 59 -60 -30 56 53 7 2 47 58 -12 54 -15 26 6 -27 20 -13 57 -39 43 -23 0
52 26 -3 -13 35 -37 -15 50 7 -43 29 55 -32 14 -2 -9 -49 33 -20 51 -17 41 47 36 22 -4 -48 -11 5 -59 -53 12 46 19 -42 -45 -56 -8 54 18 0
7 5 2 -8 41 36 -11 -10 54 18 -31 40 19 37 49 46 29 -48 33 -60 -59 -28 -42 13 24 15 -26 -47 50 -17 -43 -14 20 -30 58 3 -35 53 -16 39 0
13 58 10 -42 -14 37 45 4 20 5 -8 15 -34 57 30 -48 -36 -18 -49 -29 -3 -39 9 16 59 -55 -12 60 -43 33 17 -50 41 -27 21 46 47 -25 44 -28 0
49 35 -38 -42 -1 -53 -21 58 -60 -31 -18 43 14 11 -54 -34 -28 -47 19 55 15 48 4 27 -41 39 30 -5 -7 6 9 -29 32 2 -46 -52 -44 -36 23 -37 0
44 -20 -15 -22 -34 10 30 -1 -25 57 -13 -35 51 -38 43 -53 21 23 26 14 -27 -18 50 6 -28 -32 -55 24 -47 -16 -33 -8 49 9 -45 -19 2 -29 -40 7 0
-11 51 -43 -52 9 56 42 -59 -16 33 -36 -15 -17 -23 49 -24 -1 7 5 48 -29 -3 50 30 -6 46 10 4 41 -39 20 -44 -19 47 26 22 -13 -58 -57 53 0
41 19 33 44 58 39 38 35 56 37 -52 -24 5 -30 -32 -12 -20 2 28 -16 -46 7 -49 36 31 -10 -48 53 -57 -1 -27 -13 11 -60 -54 59 51 -21 3 50 0
26 -24 23 31 -48 33 3 56 -19 43 37 13 -30 -18 27 -38 35 8 22 5 49 -54 10 15 -25 -53 16 50 21 57 9 -29 -39 17 32 -42 28 -34 44 -1 0
21 -44 55 23 19 -53 -38 8 -22 49 9 60 -34 -41 17 -32 4 20 15 10 -1 -12 -46 2 26 -18 -29 33 37 6 -42 52 11 -43 35 27 -5 -47 -57 25 0
50 -22 40 -26 -3 11 8 -12 51 -49 35 17 57 37 -2 56 -36 48 24 60 -20 55 -27 10 -5 -53 38 -44 -43 18 25 -31 -33 -7 54 6 28 30 -19 15 0
42 -11 -5 -26 -21 46 -13 28 39 30 48 49 1 -8 27 19 59 56 34 54 -23 36 3 -32 -52 51 24 25 -44 -14 50 20 -38 18 9 33 -15 -6 31 7 0
39 -20 -59 31 -1 44 -25 4 -7 2 38 27 50 -23 17 -6 8 -15 -33 -13 22 -51 -16 42 30 46 37 54 57 48 53 56 32 5 -47 55 41 43 26 -40 0
-58 -18 -8 14 -54 15 -43 21 6 -38 34 -41 -11 -10 -55 29 9 40 -52 53 -31 22 -39 16 20 -27 -23 -49 17 45 30 -24 -4 42 48 13 -28 -7 -59 -36 0
-56 21 -50 -19 52 8 38 -14 36 -58 45 -43 -20 -29 48 18 46 13 30 -27 32 -26 -16 49 -41 -15 57 -54 -47 37 23 3 -35 -55 1 2 33 9 28 -53 0
-21 -16 -10 49 2 34 -39 -40 -3 37 -41 12 -15 -9 -13 56 -48 46 43 20 53 58 27 -4 35 14 1 -8 26 44 28 52 23 -17 42 7 55 18 -29 36 0
49 -40 -4 -30 -53 35 16 28 1 27 -58 -51 -41 22 50 -17 -5 -57 55 -44 -14 52 19 -9 12 -47 -10 43 24 -37 33 15 56 2 6 -32 -60 -3 39 59 0
49 -17 -40 56 -11 -34 53 9 -39 -59 5 -31 46 29 51 30 -26 24 -44 32 13 50 35 37 38 -41 -16 -20 21 -22 -7 18 1 -2 4 3 54 55 60 12 0
25 -59 41 -28 -53 -42 -4 5 7 -58 1 52 -18 -29 33 -22 -48 -2 -19 -14 -8 -34 27 -54 20 -57 -44 17 -15 23 -13 -35 -21 50 -31 24 49 -37 -10 -40 0
-10 -5 -23 33 -41 -25 -27 -31 52 1 -17 24 -44 49 -32 19 -12 9 3 45 2 -8 28 54 14 -57 -26 21 59 36 -46 55 -58 60 20 51 50 -34 38 -53 0
6 43 27 40 -20 23 17 30 19 -48 34 57 -52 -36 33 -45 21 -37 -12 44 -8 13 -46 24 25 -16 -39 35 56 9 53 -58 -59 55 -10 -28 42 60 -14 29 0
-9 40 6 -1 -53 -50 -20 38 -59 39 -42 52 33 8 -27 26 49 54 -16 -24 -44 -12 -46 -56 37 22 -14 -23 17 -35 34 28 -47 -30 -45 -60 55 -18 -41 57 0
-59 47 54 56 -48 57 -41 -42 11 -40 -13 -18 -38 31 -12 -46 -37 2 -24 -21 55 4 -58 52 -25 23 -22 20 -53 26 -45 -50 -34 5 49 9 -15 -32 -3 10 0
-50 29 40 -2 -30 18 -38 -8 27 -9 -15 -4 -1 -34 37 31 -25 -35 28 10 36 -52 -48 -53 -58 59 -14 42 -33 -19 32 46 -51 60 -16 11 -20 -43 -56 22 0
-2 -14 -53 22 -6 36 39 -28 30 23 -56 -20 -43 -8 27 40 -11 50 -16 -47 -1 35 -34 25 52 -29 44 -32 21 -37 -55 60 33 17 -18 -5 -4 -46 -42 48 0
-40 1 -39 -49 11 37 15 42 9 -19 -25 53 -20 14 -23 10 4 36 -47 32 45 -13 21 46 28 -24 -2 -44 6 -52 41 -12 -38 3 50 -51 -60 -29 -48 -34 0
-33 26 12 3 -59 -39 -44 10 -36 -16 -5 9 -2 40 14 19 -38 -41 45 51 43 17 55 35 37 -18 11 8 54 34 60 4 31 -24 56 50 -46 29 -28 -58 0
3 -22 17 -45 -9 43 -14 -54 34 51 -20 37 41 48 -11 46 32 -15 -31 -44 -42 35 -47 21 -27 -55 49 5 -30 -19 -4 -16 -38 1 25 13 26 50 60 7 0
-24 1 9 -14 -30 -37 2 51 -42 -16 49 -54 27 -15 -39 -17 25 18 -8 4 28 -19 -13 -11 21 -40 -22 -3 23 -6 -33 -36 -26 47 12 -57 -10 5 -56 58 0
1 -8 -30 28 -31 42 -15 50 51 10 29 38 -48 7 -59 -24 -13 20 21 9 22 40 -35 41 -5 -3 -57 52 33 -34 -16 39 -11 12 -45 -46 53 -14 -2 -60 0
-38 48 29 45 -1 -7 56 -40 26 -37 41 27 -9 -2 -43 -36 -14 42 -44 -58 34 5 -17 50 25 15 -52 46 -47 -13 11 -28 51 8 -49 -54 4 32 60 35 0
9 44 25 -4 -17 8 -30 -60 -53 -43 40 54 28 -51 -20 -34 -41 31 -10 26 58 11 42 -32 -5 -6 -18 -52 59 37 56 50 27 -45 48 15 -19 -35 -39 2 0
-5 23 -3 4 26 -14 -59 -28 -18 58 9 -22 54 -47 41 17 -49 -30 -57 -27 -6 20 -37 36 -29 -35 -19 -42 50 11 -45 16 44 -52 -34 8 40 -38 55 21 0
-5 -33 -2 -53 -28 58 27 -42 -52 -25 -29 12 -39 38 -13 47 48 9 -18 20 4 -24 -51 8 -22 16 -1 -41 45 -54 49 57 19 15 30 -55 3 -37 7 -14 0
-26 -11 -44 27 36 -52 4 -51 -38 35 -31 -8 55 12 13 -41 23 16 14 58 20 18 39 10 24 -5 -21 -50 15 29 40 -6 28 54 57 42 53 9 22 56 0
39 48 -18 -6 2 21 -37 23 20 -3 -8 -33 51 35 -16 -15 -1 32 -58 -50 43 -5 -19 -60 54 49 53 41 47 -11 22 17 40 -26 -12 -14 -46 13 -30 -24 0
-51 47 5 -39 -57 35 38 -4 23 -12 42 28 -10 -52 -15 -20 -48 -26 18 -43 17 -16 -58 13 -60 -27 24 -56 34 25 -49 50 40 7 -55 -30 3 -45 -41 33 0
18 13 -49 54 -5 -40 -28 -57 17 43 9 51 -16 35 36 56 22 27 47 38 52 1 50 20 -41 -6 -2 42 -60 23 21 -44 -37 29 -26 -19 33 4 -14 -45 0
-7 -60 -42 51 -34 33 38 49 -6 14 31 39 25 9 36 59 29 -55 41 50 -18 -56 5 -57 -30 -32 -13 -48 28 15 -12 35 11 22 -37 -8 43 -19 58 20 0
-17 -58 18 -54 -28 46 -15 -31 9 10 14 -42 5 1 -11 38 -7 -4 -56 -2 -35 53 25 22 -47 19 6 -45 40 -37 33 -8 -51 -23 -32 -20 34 -57 26 -39 0
-60 25 59 -28 17 -20 -6 53 -19 -24 -7 -50 -31 35 46 23 55 13 -16 44 -21 -32 45 54 -11 18 -39 -48 57 -40 -33 9 -22 1 -12 -43 -27 56 -30 58 0
4 -33 35 56 -8 45 -39 -51 12 34 10 -54 7 -1 15 6 -53 -21 -5 -29 -50 27 30 41 19 25 3 59 16 47 -52 -20 -46 -32 -26 55 -24 48 23 17 0
3 -22 32 41 9 16 20 4 28 48 -47 37 -5 -49 53 -54 -13 -42 27 -55 -44 15 -6 30 46 -50 -35 -33 17 -51 -43 -24 -10 -38 -26 -31 19 7 34 -56 0
-43 22 -33 13 -56 9 -26 53 25 -11 6 38 -59 44 -52 -31 40 -15 28 -16 -42 -19 29 24 32 35 -12 21 -17 -14 -41 -7 3 57 -27 -50 -2 -51 -45 -10 0
25 8 15 29 -20 33 35 -55 2 42 -59 -58 23 13 39 -27 -12 -60 52 -30 -24 37 -43 -5 53 -54 -18 21 -11 -45 7 -36 -49 26 1 -44 10 -50 -48 -4 0
22 -29 -10 50 17 42 -14 -49 24 55 -7 -16 -60 11 39 2 32 -15 35 51 30 3 36 31 54 34 -38 -5 -59 -23 -8 52 -45 -43 28 48 -58 -44 -13 -41 0
-56 46 52 -23 31 -20 6 -55 -1 34 24 45 -36 -43 -44 -50 33 29 -9 60 -53 39 -19 3 -47 -15 37 -13 -40 -14 4 -16 54 48 -35 26 2 5 58 -8 0
28 38 51 18 46 -24 45 23 -25 20 -54 30 50 31 36 19 -29 59 -21 33 -7 -43 49 39 -57 15 13 -17 12 53 -16 -4 -1 -34 -56 -10 55 -6 -22 -8 0
-31 -51 4 -48 -10 -14 58 -20 -47 -23 41 -50 -3 29 -40 13 15 59 -39 -42 55 35 2 -1 -44 -33 -24 17 -11 -12 -49 34 -32 -5 25 38 -9 16 -26 -54 0
58 -34 -52 5 49 14 39 18 16 40 -24 -55 -50 59 -6 26 37 57 32 20 3 -56 47 -17 -53 46 38 -45 44 -11 -23 19 -10 54 -48 -25 -21 12 60 33 0
7 37 31 26 -50 -18 48 -29 12 13 -9 22 11 -38 21 -14 -23 -36 -1 56 -10 -44 -49 -17 2 -34 -20 33 5 19 16 -42 -30 57 -43 25 -40 52 45 55 0
40 -23 34 12 -37 45 51 48 60 18 -54 -39 -29 58 -6 -10 -20 17 14 -33 52 -9 -5 -7 -15 -55 44 -13 46 49 32 -42 36 -8 3 25 -59 -53 -28 -27 0
54 -32 24 -52 -23 -28 -11 33 14 -25 31 37 -10 -13 49 -26 -38 -39 -58 -55 6 -36 -19 1 -30 5 44 51 17 -27 50 48 20 -22 -21 35 60 56 -42 2 0
25 41 36 7 24 -53 26 -57 -23 31 -22 29 -55 -59 52 -1 5 -13 -35 51 28 9 -38 -30 -27 37 39 -44 58 11 21 16 -6 -49 12 32 56 -42 -14 34 0
-56 21 -2 51 -41 -30 17 -6 49 -32 16 10 -19 -22 -46 -43 31 13 -11 -40 14 -39 -5 37 54 -27 23 -47 58 -38 -29 44 -50 9 -60 42 7 3 -34 33 0
-25 -6 28 -44 32 -55 15 41 20 26 -24 -49 -9 52 8 -59 -4 30 48 47 43 -35 -34 -17 27 -16 10 -2 -1 -58 -3 -39 33 -50 53 29 -21 -51 7 5 0
16 47 -35 5 23 28 -15 -52 -46 6 34 9 -37 10 -2 59 38 26 20 25 13 -31 -30 -3 -40 -21 -4 -49 -24 33 -17 -7 60 22 27 -50 -53 45 8 -44 0
17 -38 46 -43 -15 -35 37 19 -21 -51 29 48 39 -16 10 -14 9 -57 2 -8 -34 13 5 -55 22 31 47 54 -23 -27 -45 -41 1 -33 11 -42 56 12 -32 -3 0
-44 14 35 -8 -17 34 28 9 -46 -55 38 42 -50 -32 -58 39 33 19 21 -24 25 -22 20 -59 -40 -23 -18 4 -56 -60 -16 51 -41 53 -29 -49 -37 45 -26 -3 0
-16 -56 35 -52 10 44 57 -38 -22 9 24 -58 26 -21 15 51 -30 37 17 47 31 27 59 42 -6 -54 -60 -39 4 -32 -50 -53 -8 -25 -46 -34 41 -12 -45 -18 0
-6 24 -50 -55 7 -40 -28 -30 -36 19 -48 33 -46 -9 -47 -42 49 -27 -45 8 -3 1 58 -2 -12 -41 -23 -16 -51 37 -11 44 -53 35 -54 32 -5 57 -39 4 0
53 57 -26 1 -50 -60 33 -35 11 46 39 -8 27 18 24 56 -4 -19 42 -54 51 36 37 -48 3 9 13 -22 52 12 31 -15 23 21 28 -14 -25 38 -2 -58 0
-50 -24 -35 -38 56 -45 -14 57 -33 -2 26 30 25 -37 39 48 -11 -9 44 51 1 13 59 -53 34 -58 4 -12 -36 18 -7 -19 -3 49 -15 -21 -22 46 -54 5 0
-34 -8 -4 55 54 30 -9 46 15 52 16 -25 -35 -5 32 60 50 -20 -47 3 43 -56 36 58 59 -28 49 -57 19 10 -27 -40 -48 45 53 -17 37 -24 -38 26 0
-21 -46 -26 -55 36 22 49 31 -38 -12 -58 29 3 6 -25 8 -52 4 -18 14 2 -11 -1 30 42 -48 -57 13 -9 37 -19 15 23 24 -39 5 27 28 34 45 0
-58 49 40 -10 8 -46 23 -16 -57 -55 35 -13 -29 51 12 54 44 -21 -22 6 7 -47 24 -4 3 36 -15 20 -39 -45 33 19 -11 -2 -56 59 -28 25 9 31 0
36 22 -8 -48 -19 29 -9 -56 23 -60 51 41 -50 42 40 -57 4 -39 -1 -5 -16 -49 14 -43 -26 46 59 45 15 -53 54 10 -52 -30 44 -6 -17 -38 -27 -20 0
24 3 1 -31 -20 -37 49 -19 -53 -9 -18 16 39 -14 52 -42 12 48 21 40 50 7 35 -27 23 -4 -55 59 17 32 15 -8 -30 22 43 26 -44 -28 -2 46 0
50 -8 30 -35 9 -51 37 -7 -12 2 45 -44 46 49 -4 48 25 -32 59 -29 3 -14 -56 10 -5 23 58 -42 47 11 -38 -41 1 -19 -54 -24 -16 -34 27 -40 0
-4 31 34 39 -28 -21 1 -13 46 24 -5 -6 -53 -18 55 60 50 -40 -54 27 -44 -57 3 48 -35 37 -58 30 49 -43 7 59 23 51 36 -38 -42 -56 -8 -10 0
-55 60 53 -21 52 39 -51 26 -50 11 -31 -29 34 -41 16 4 46 -12 22 -24 27 48 -2 -5 -3 43 37 9 -28 15 20 -47 40 -18 23 -1 -45 -13 -19 25 0
6 17 43 -19 -8 12 58 32 11 24 -51 -29 -22 -57 27 -59 2 -44 -5 38 -56 55 45 -13 7 -16 46 -39 26 53 -33 -9 35 -4 -20 -31 37 -41 -60 -54 0
51 24 58 11 -45 -15 12 46 38 14 -28 57 10 -44 60 29 48 -49 -40 6 -43 23 26 8 -35 -47 39 27 -50 41 -20 55 -19 -36 25 9 -52 34 -56 -21 0
48 -20 60 -41 42 46 -59 -32 -29 -43 27 -34 45 -7 -12 40 18 1 -17 58 52 -19 9 -47 31 13 8 24 -44 35 -2 -51 -26 49 -23 33 55 -21 39 -28 0
18 -28 -29 -36 17 45 8 1 -48 21 -39 42 47 -38 -10 -34 -50 15 -59 14 -5 46 -37 43 54 3 -53 -49 58 7 4 -23 26 6 24 -40 -60 -32 57 -2 0
30 -21 53 -23 -6 44 2 17 19 -32 1 4 -13 -18 -43 56 36 9 -45 -41 47 -59 -57 -38 -5 -31 25 12 28 58 -24 16 -27 42 49 54 -3 -48 10 51 0
16 -2 -43 57 54 -13 -39 -6 20 10 -56 5 19 -48 -29 55 38 33 3 -4 59 37 42 -27 18 -51 -15 46 -28 34 50 41 -22 12 -47 -44 -60 -49 30 58 0
34 -45 41 -39 40 -42 2 8 24 -36 12 -4 -50 -23 -19 -11 3 46 10 -57 -28 31 59 -56 37 -17 22 -15 -26 -49 48 1 54 7 -13 53 32 -16 -5 -9 0
15 19 -20 -50 -11 56 46 38 -23 16 24 -18 2 44 27 -4 43 -14 -47 -31 -60 59 12 45 5 9 55 -17 33 -41 6 21 13 -42 26 3 7 -29 -58 48 0
11 -58 5 7 16 -2 -28 39 -44 -34 50 -24 48 -14 26 -6 -30 55 1 -59 -47 -33 -51 -15 -45 17 10 18 -40 60 29 22 -52 -46 -20 54 -49 -8 36 -23 0
58 31 -23 -57 -22 -9 37 -56 -5 43 -29 12 40 16 49 -11 -55 -46 18 -8 -13 -47 33 20 3 27 36 30 21 -19 -59 34 45 1 60 17 -6 24 28 -14 0
53 44 -51 -28 -22 -7 40 3 -26 -10 -48 -17 15 -4 52 55 -20 41 -25 38 8 -29 -18 30 -11 1 -9 -31 56 -46 -43 -49 -21 16 42 -23 2 -60 24 -34 0
53 6 -40 52 2 -3 -24 8 -58 55 23 -50 -46 43 28 12 -36 -22 -41 37 -25 4 38 51 -10 -44 -7 -16 49 -39 -31 59 13 -60 -18 26 1 -15 -17 -14 0
-40 53 29 -7 17 20 49 -54 -60 25 11 -8 -5 -58 33 56 37 41 12 1 -57 3 28 26 22 -18 24 15 -4 43 21 -35 -2 -38 42 59 23 -51 -47 -46 0
-50 30 53 23 22 -48 -8 51 52 -59 -54 10 32 -56 -20 -9 38 31 15 -18 19 -14 47 33 34 -27 -6 26 25 24 45 -36 -35 39 -43 17 29 -49 -40 -46 0
-31 40 -28 -42 -25 -35 51 27 1 -56 4 3 29 6 33 -34 47 -5 -41 -30 -19 -11 48 46 13 7 -8 49 -38 55 37 -58 -21 -59 -36 -23 -54 9 -26 24 0
-45 26 -15 27 -36 58 -10 57 -48 -52 19 -20 18 8 11 -14 50 -35 28 -54 -6 59 4 -31 -56 -1 -30 -41 -22 42 -39 -60 -7 -32 -2 -25 55 -47 44 46 0
1 57 -4 49 47 54 -51 55 -6 -59 14 -38 -32 25 44 -16 -53 -15 8 36 -22 -26 41 18 -60 27 -34 -2 -23 33 -7 46 10 21 -58 17 -19 -35 -37 -3 0
-19 -14 -39 10 53 -29 25 -7 -48 -49 40 41 -58 -12 51 -34 6 33 13 38 43 22 -27 -45 55 -47 37 2 -50 1 44 36 -57 -26 21 -3 23 15 -18 -5 0
10 -21 -57 -54 38 -32 14 -34 -28 22 -24 49 25 26 20 16 -50 -60 -51 43 -6 -9 55 -35 -59 27 -2 36 -29 46 23 17 4 -3 5 -13 48 -30 31 1 0
1 13 -38 -25 44 23 51 40 -60 41 -42 3 24 19 45 -14 28 -22 33 35 -47 17 -36 -30 -39 -56 -29 54 16 -12 15 -6 4 -8 32 -5 -43 20 55 37 0
31 -24 -18 -49 -58 40 -10 -11 27 44 -17 -47 30 -12 14 9 -52 42 21 36 -34 5 56 35 50 -6 38 -55 -28 53 48 -25 41 8 19 -59 -13 -3 -20 57 0
25 19 42 -37 -41 44 -1 46 -21 36 -16 30 -58 -55 17 -51 40 20 -27 -29 48 -14 -28 49 -18 56 -4 5 32 -6 39 22 9 43 7 8 -54 33 -3 -12 0
38 -40 28 46 1 -4 2 -13 27 17 52 6 36 21 -54 -49 -19 -8 20 -59 -18 -35 10 -31 30 -15 58 -23 25 26 53 -56 -3 -44 7 22 32 34 9 -12 0
-56 15 11 21 20 -58 -59 -42 -49 -5 -37 47 35 -40 -39 45 1 -50 -30 57 53 2 -27 36 -38 -6 46 12 10 -26 -19 16 23 -14 52 -13 -3 -32 -8 -34 0
15 45 -6 43 55 -26 -47 -40 34 -21 11 20 53 -52 12 56 -23 -5 -37 -30 33 -2 41 17 28 -3 -39 -7 -50 -38 4 1 18 36 35 -29 14 24 -54 -19 0
-2 17 35 -5 3 56 -14 -44 4 -37 -46 19 48 -50 -32 -20 15 49 -28 10 -12 -52 26 -30 -8 39 -41 -22 -29 -11 38 -6 45 -59 31 13 24 -47 27 -18 0
-26 10 16 48 45 -30 28 55 -1 -8 29 -27 -9 59 18 3 22 -12 25 31 40 -2 56 -44 -41 52 -43 4 -42 23 -51 -20 -7 -47 -58 -17 -36 13 -5 54 0
46 -30 -48 37 32 47 -35 -51 -15 53 -33 8 28 -21 -14 -40 -17 -52 38 23 -4 25 -55 -58 12 60 -2 -45 -29 -1 -34 26 -49 27 -41 -24 -6 -39 -56 7 0
-23 51 -39 -49 -57 -50 -2 -25 -37 -59 6 21 47 -38 -44 -19 -28 48 -36 54 27 -52 58 8 -18 -16 32 35 -55 33 -46 26 4 -60 -13 -14 -30 -29 -12 1 0
45 -60 -32 15 39 -30 29 -42 51 52 58 6 -7 -38 43 17 -41 -16 -10 18 22 8 -20 -24 59 -19 -27 50 3 5 53 35 40 -2 -33 37 55 -44 -1 -57 0
-47 3 -26 5 -29 -40 42 15 -1 -37 48 -50 33 36 25 -49 -41 12 -60 35 22 -45 -4 -20 2 44 -57 -39 19 18 8 46 27 56 11 -59 -16 -21 30 -54 0
2 43 -17 -12 -55 46 -5 -47 31 -3 44 30 -9 -37 20 -50 40 -10 -59 -21 13 57 -19 -26 -7 48 33 -35 14 -58 16 8 -1 52 51 60 25 45 18 11 0
43 -15 39 21 -47 -8 50 51 -37 -45 -35 60 -49 -28 -4 30 34 36 -6 -7 38 -3 -33 -14 40 11 -48 -13 31 41 -32 54 42 -27 -23 -9 -29 58 1 -22 0
48 32 -60 -44 57 -26 54 -30 5 -36 15 -23 -10 19 -25 -27 -18 16 -28 -40 -24 4 -42 31 38 -59 -50 -43 -34 -58 -39 46 52 -21 -3 -17 51 49 35 -14 0
22 19 -31 16 15 -5 42 45 -40 18 51 -33 29 -60 -14 47 58 -28 -37 -41 10 24 -52 34 36 -26 -59 38 -39 49 2 32 -6 -25 21 27 13 56 -48 -4 0
-32 59 -16 -26 56 -38 20 -1 12 -14 -17 -60 -37 8 13 57 9 -27 7 -18 40 -35 43 48 19 -53 46 -31 24 -34 30 5 -55 21 4 52 2 15 45 29 0
30 51 53 -39 55 -54 43 37 19 -7 17 48 -57 23 -47 -12 -10 -27 31 22 -4 9 36 49 -25 5 16 34 -60 41 -35 8 3 58 -28 33 -59 -50 6 20 0
-39 12 3 -40 31 -51 -6 58 -8 42 4 -30 56 -48 36 44 21 -19 1 53 -32 -2 50 -27 24 -41 22 18 -46 -35 -47 -29 15 14 -26 -54 37 -17 57 -43 0
9 58 53 40 -44 -19 -50 -46 -18 -8 20 14 -16 1 -5 -33 -26 -55 15 54 32 -52 35 -34 2 11 -4 59 -7 30 -12 -13 -45 -57 31 -39 -36 -51 21 56 0
-1 -13 -46 15 26 -39 57 -38 19 6 -3 -40 29 41 30 14 35 -34 -31 -52 20 45 -10 16 23 -58 49 53 18 55 -42 54 -50 56 2 51 -28 9 27 37 0
-37 -60 45 59 -55 -9 -32 21 33 36 7 -38 -53 5 56 29 -34 15 -17 -42 35 -8 -41 -46 4 -44 -39 16 43 28 -12 13 -54 57 -22 -58 -47 2 31 -48 0
-43 -57 -36 -54 -48 -30 38 -46 -13 -26 20 -51 -2 -53 34 -8 -19 -47 -3 -9 17 -10 -25 32 -29 -49 -23 21 -16 -28 33 -7 18 15 1 22 -55 -31 -6 12 0
32 -18 -10 14 -34 43 -22 36 53 -8 -21 15 -31 -59 6 -51 25 54 52 -4 29 39 -48 -50 -19 -38 26 56 -9 57 40 -1 -46 -49 -45 -42 23 11 24 -3 0
-57 -47 40 -45 42 -4 -46 29 30 -48 11 22 23 44 -58 -53 18 -38 -60 20 -17 34 -15 -37 -27 -32 -3 -35 2 52 12 51 36 54 39 10 -26 25 28 19 0
-41 -1 -11 -34 23 -55 9 14 -49 -10 35 -58 -19 -21 47 37 51 56 -53 -38 13 6 -36 18 -30 -15 -52 50 -46 -39 -3 25 40 -54 -43 -57 -31 -45 8 -16 0
46 15 -41 -52 57 -18 23 -60 56 -19 37 -39 7 59 16 22 38 17 5 14 28 30 -48 -42 -29 -25 58 26 -8 45 51 -49 -13 -55 47 1 6 -32 -4 43 0
42 -18 -50 11 45 28 -24 -8 -4 58 60 38 29 56 -54 -33 17 36 43 -32 -20 41 -6 30 25 2 9 -37 1 3 14 -5 -44 -53 -47 10 -39 12 -48 21 0
54 9 -28 -60 -39 57 -44 2 27 -18 49 16 -32 10 -52 -7 46 -51 15 19 -43 -55 36 -1 -40 17 5 -45 -59 -42 -29 -31 8 6 13 37 -41 50 33 -24 0
25 -28 -22 50 36 -4 -55 -48 -39 -42 -38 -47 49 -37 -35 -46 -3 -6 -5 -32 -16 -18 43 -53 58 9 41 21 -57 -44 -34 -31 10 -20 24 1 54 -52 29 -27 0
-53 -22 -57 -29 -28 17 49 -1 56 34 -12 -42 -43 -3 -40 15 -2 21 25 -50 -33 26 8 -36 23 41 -14 31 -9 7 -51 6 20 32 -13 44 16 -60 46 -45 0
28 -49 -60 35 -41 59 27 45 31 -52 -1 -48 50 -53 10 -40 23 56 -57 -2 -25 -42 51 -55 8 -33 -46 -39 -26 6 -15 -12 -38 -13 54 -58 30 -17 19 16 0
-13 -35 30 -23 -20 50 -24 25 -21 18 53 15 -56 -47 4 32 55 12 -52 54 16 43 -37 -10 -41 -58 19 -28 60 9 -29 -11 -49 6 42 -39 -31 -17 -57 46 0
59 46 23 -14 -20 -37 -15 11 -47 30 7 -44 -53 17 29 -51 9 -10 -25 49 13 -34 48 -12 -6 31 56 27 21 38 -4 19 -40 57 1 45 -41 58 -5 -8 0
50 -46 52 3 15 -34 -60 -26 -10 -9 13 57 17 -20 39 -30 -25 29 -16 -8 -33 -58 45 -42 -27 -12 -21 18 49 24 51 2 -7 -35 -4 38 -6 44 -56 59 0
-50 10 31 24 -19 -42 20 -34 -14 -32 60 49 -39 -16 47 35 -17 -52 43 -33 11 -53 -12 -1 -41 26 -45 46 5 -54 -9 -4 -15 -56 8 -2 27 -29 28 -51 0
-52 -19 -40 -41 -23 -36 11 -8 3 -2 57 39 -31 -9 10 -60 38 -16 -53 -28 56 47 45 -18 30 25 26 -48 -43 21 -44 -35 1 20 -32 -58 6 -29 -14 -50 0
43 30 21 -15 56 -22 -8 25 44 4 -1 -58 12 -49 -29 19 -7 -26 14 46 -47 -16 20 -24 18 33 37 52 -42 50 23 -27 28 -35 -45 54 5 -38 32 11 0
-49 37 44 33 -39 -13 6 48 30 -28 -60 58 -14 38 40 2 22 9 -57 -31 -24 -36 1 -32 23 54 -21 10 -42 -27 52 -56 -17 -53 -15 -8 35 -4 29 -5 0
32 -58 -31 38 -54 33 -10 39 -53 -34 21 -45 42 13 -50 -19 -11 12 29 28 14 41 -27 -6 23 -20 15 25 -8 37 4 44 -22 -51 -46 24 9 -36 3 -7 0
41 -6 -36 25 -1 -10 -59 21 -52 -55 39 22 -43 16 -60 32 -29 20 2 23 45 27 -14 -9 33 -49 -38 28 -3 19 -13 24 12 42 48 -8 -11 56 -51 4 0
56 -8 -20 -36 -14 -39 5 40 43 -21 4 22 -59 3 31 1 11 -13 -55 28 44 54 32 -7 -37 -41 35 45 10 15 52 -26 -12 -24 6 -47 -49 16 33 -50 0
31 -41 53 -51 13 -26 30 33 34 -47 46 -60 -59 56 -22 -10 -14 -11 20 -6 36 12 28 -45 48 -50 -38 55 -4 27 49 7 -40 -54 -32 29 -2 -8 -52 23 0
57 50 59 11 -14 47 31 42 38 -19 32 -20 24 46 -6 -48 -9 -16 41 -10 -40 -23 -34 25 55 33 -58 37 27 21 39 56 -1 13 2 -36 -28 -15 26 -45 0
-21 -7 1 39 13 38 -59 -20 -51 56 55 -24 23 30 -36 -47 -9 16 49 44 -4 29 -2 58 3 5 -15 -8 57 -35 41 -22 60 37 54 12 -31 -46 48 -25 0
-41 45 -5 3 -54 1 -28 -39 -26 30 2 55 -34 -15 6 -58 40 -20 24 49 -10 11 46 31 -36 -8 -35 -21 13 4 -57 16 -23 -33 59 -19 -7 18 -53 -12 0
-54 -31 -56 -6 -16 44 -42 -18 21 -25 41 -9 55 -46 -2 -60 -57 -53 -13 45 -22 14 -17 -52 35 -20 -51 48 -33 -32 40 19 -30 -49 -43 -29 -15 -27 8 -38 0
8 13 26 41 -27 25 24 35 33 40 56 -2 46 -43 -19 -4 5 -29 -51 -54 -1 -52 -48 16 7 34 -59 -11 -44 60 -18 3 45 -49 -10 -58 22 21 -12 47 0
-3 59 -31 -60 2 20 -54 48 -44 8 -35 49 -36 11 -26 47 -7 22 -57 -51 -29 21 23 25 -33 -13 42 19 -4 50 -58 -41 -53 1 -5 37 39 16 9 14 0
-8 40 37 -24 52 -9 23 -14 54 44 27 38 -49 -41 21 -42 48 -2 -39 17 13 -4 12 36 60 34 -43 45 -31 56 -58 -3 47 55 -59 5 50 -22 -51 -10 0
60 22 28 -43 59 -1 -9 -17 49 -57 -4 48 -29 3 5 54 16 -6 46 -8 47 -32 -33 -18 26 27 31 -20 -58 44 -36 -19 -42 50 51 24 -56 -52 21 -12 0
-38 9 -10 20 39 -33 58 5 36 41 22 -46 -7 -60 -12 42 -51 28 -8 11 -24 -2 -15 -56 48 -43 44 -35 54 -29 32 1 17 52 50 45 -30 57 -27 -3 0
-16 46 -52 3 -10 11 -41 -39 -43 7 1 -36 4 29 30 -23 -31 -60 37 -32 -50 -48 33 17 12 53 44 13 -22 -26 -21 2 -47 -58 9 19 14 15 -57 -45 0
7 -45 -14 30 -42 26 51 -25 16 37 53 5 -29 35 -8 20 -47 12 60 18 -48 -46 22 13 15 -2 -54 -17 -32 -10 9 27 40 -56 -50 43 52 49 -34 -38 0
-45 -21 -31 -32 -51 41 46 15 27 -42 50 38 35 -53 58 54 19 -8 29 18 -10 56 -20 12 -30 -57 55 23 44 36 59 -43 -34 -4 1 40 -28 14 -26 25 0
-17 -49 -47 60 5 28 -50 40 -41 24 58 -54 52 -45 -53 -14 7 34 -36 -12 18 -38 2 -22 -8 19 31 4 -15 51 -39 3 -26 -20 42 -46 44 57 35 23 0
-5 -8 36 -58 -15 30 3 18 -12 -34 52 -7 1 -20 -16 24 -49 41 2 -22 -29 -11 -19 43 -14 26 -4 -45 6 23 25 -27 -9 17 13 38 -46 -57 35 60 0
-57 -20 52 6 34 13 48 -49 -39 -38 -40 -18 -50 -46 43 11 29 41 17 55 24 16 60 36 4 -42 -35 -14 -5 -37 27 12 47 -19 -28 -9 -10 -26 44 15 0
21 57 39 -14 51 -27 54 26 44 47 -4 3 25 -8 -49 -28 50 40 -24 37 -1 -30 -6 -46 -18 29 -2 -52 15 -13 59 -7 19 -45 -53 41 31 9 11 55 0
60 40 -13 -37 54 15 -17 58 32 31 36 42 45 -9 34 -48 -50 25 -1 20 -52 -12 16 21 53 -57 23 -43 7 44 -35 29 -3 -55 -49 -59 27 -26 5 47 0
-58 -29 -47 -5 14 -42 39 53 35 -31 -15 27 -28 59 43 -24 11 -1 -56 -34 -54 -30 4 -26 41 60 -33 -38 52 20 55 57 16 51 36 -37 -23 -2 -18 -50 0
31 -10 3 9 -25 -2 -5 43 22 -17 6 -40 56 -49 37 47 -34 11 -13 59 42 -36 44 -14 -19 54 -24 45 -55 53 58 15 51 -12 57 -8 -16 -39 -26 1 0
-50 24 -59 -32 -53 -18 41 -5 -17 54 -31 -27 30 22 -25 12 -13 42 29 39 -36 40 -43 34 -60 9 1 47 -10 55 35 -7 56 44 19 -46 11 -45 57 33 0
-18 30 28 56 43 55 -31 4 29 52 -16 -54 11 -17 3 -50 -51 26 21 13 14 23 15 -41 22 -33 39 24 49 59 -8 32 2 -5 40 -27 -45 46 53 38 0
-47 -13 48 53 25 -43 52 -55 -36 -5 -56 -17 35 -7 -21 31 -42 -2 34 -1 38 24 -16 -39 -54 59 -33 -10 22 60 44 -8 18 -46 -23 -50 -45 -49 29 19 0
22 48 60 38 50 2 -9 -58 -8 -56 32 -3 -43 35 -20 -36 26 54 14 -51 -23 -24 -13 37 29 12 10 19 46 -40 49 18 -39 25 -28 -53 47 21 -42 5 0
3 12 -23 -49 -41 -28 -5 -26 34 -43 -53 -16 51 -50 -7 -14 -59 -10 -36 -58 -32 -45 -20 -1 -31 13 17 -11 -8 -46 -55 60 44 -29 18 40 -25 33 24 54 0
-34 13 -12 5 40 60 6 -1 -21 15 58 44 -30 51 -46 17 53 16 49 -20 -33 -47 -9 -39 -14 8 -24 42 -35 -11 -38 55 -36 -3 -52 -2 -18 -22 54 25 0
24 -7 -3 -8 -23 -19 48 54 -60 53 28 -10 36 6 -32 1 51 -11 -9 -14 26 -41 33 34 -22 27 55 46 -5 52 58 -59 49 35 4 -50 43 -57 18 45 0
9 -19 -4 39 -55 6 -45 48 -49 -25 34 42 -41 51 36 -50 3 -58 27 20 44 -12 -54 30 -8 -40 -57 -11 13 15 -56 23 47 -35 -16 -33 32 14 -46 -2 0
-32 24 -1 27 -46 -56 -49 -58 -57 -12 -39 -44 60 -55 54 -8 -20 13 -17 -9 31 28 30 -47 -35 -10 -2 51 29 4 -45 25 18 22 26 7 48 15 -50 -41 0
13 28 12 -6 38 18 10 -8 -58 23 -34 46 26 37 42 35 -19 15 -9 -24 -45 16 55 -49 31 -47 -41 36 32 -50 17 51 27 20 -52 -57 -43 11 -56 40 0
49 45 43 -52 -1 -56 -57 2 18 30 -54 58 -50 4 -17 -38 60 -51 -10 5 13 -9 -39 47 8 -14 20 19 -26 -46 11 25 33 37 -21 -12 16 24 -53 -23 0
15 48 56 11 -50 54 -41 60 55 10 -5 26 57 3 27 -31 -7 43 30 17 -29 49 53 22 52 33 42 20 9 -47 13 -37 -28 -39 16 59 -34 40 8 -6 0
27 -42 1 48 -20 60 32 -44 23 7 5 -22 -14 -56 -26 -59 53 -41 29 -15 -24 31 -2 -19 -36 9 -10 28 -11 16 -51 46 -55 -6 57 -34 -25 37 40 -18 0
-48 -33 -38 -2 -51 7 54 -50 -22 3 47 15 -26 20 35 -28 -30 -21 -1 -36 -39 -34 -13 6 37 -14 -5 -11 24 8 -55 -32 -40 -9 -4 -42 -25 -56 -59 53 0
44 -20 23 45 36 -49 -50 57 26 -56 53 -52 -48 -43 -33 -27 58 4 10 -1 51 -22 41 29 21 -13 38 5 55 -47 39 7 31 40 -16 15 -59 -54 6 -12 0
-37 60 21 5 25 -26 34 59 53 -49 11 -33 13 1 -16 51 -22 6 55 2 -29 -32 -19 -39 -38 15 41 3 40 24 -7 -10 -57 8 48 -14 -27 46 -4 47 0
-33 -45 -42 25 28 -44 -60 -38 24 -48 30 -6 11 -3 14 -52 59 22 -16 -12 -19 5 -1 51 17 37 47 -9 13 -15 55 -4 41 43 -20 36 29 -40 34 -35 0
27 6 52 38 55 34 -17 26 -18 30 50 -54 -56 35 31 -8 -4 46 16 -39 51 -47 -33 -3 32 -41 -11 57 -45 -9 22 -36 -10 60 -53 -21 -12 -13 23 37 0
-35 56 -27 16 23 -39 -25 -10 15 11 54 -4 60 -21 -9 6 24 52 -41 -53 -19 -17 -40 26 -58 32 -38 -28 22 -59 43 -34 50 -44 -7 30 -5 51 13 -55 0
-37 -6 20 -47 43 28 44 -19 34 38 51 41 32 21 8 -30 54 -48 -11 12 -1 57 -39 -14 -25 2 -23 -60 -40 -29 59 -49 55 52 -10 35 31 -50 53 13 0
58 14 -41 -42 -25 -15 56 -52 6 -57 -38 -48 4 40 -19 -51 34 17 54 -33 8 -10 50 -23 -39 26 55 9 59 30 -32 31 -1 -60 2 -11 -37 -46 -43 27 0
21 -29 -35 -14 -54 -33 -55 8 49 20 9 58 -15 -5 10 38 3 -42 -53 -52 -50 -1 48 -13 -30 -59 -19 47 -26 43 -24 11 -31 -27 -6 25 -22 44 -16 -4 0
-53 58 5 3 -59 -7 -45 -40 -18 35 -27 36 -48 -49 -12 -56 47 -15 34 -55 -16 -24 50 -30 -31 -4 -13 -43 -11 -6 -41 -29 -1 2 -14 33 -26 38 20 25 0
42 -44 35 -51 -39 -59 2 19 -55 -34 48 43 -28 -18 -45 -21 -13 58 54 -37 25 47 -15 -17 -22 -12 23 60 -46 10 -30 -31 -29 -52 16 56 3 57 20 50 0
8 13 15 59 60 -7 -41 45 -25 -26 51 -42 20 -6 49 3 33 -19 -14 -34 24 10 58 36 -16 -38 39 30 46 57 -12 47 -32 21 31 -2 -43 53 44 22 0
7 -25 6 36 -46 41 -28 -22 -44 20 13 -37 -51 -19 -45 11 -40 -33 -58 -48 -30 -21 38 -31 29 8 -10 -24 53 -50 -18 -35 -49 14 -54 9 -17 60 1 -43 0
45 44 15 -49 -50 59 -3 7 41 -26 51 -13 28 -2 -53 -33 14 -39 54 -48 46 -21 55 -23 52 5 -30 37 9 43 -35 36 -60 18 -57 29 47 32 11 25 0
30 -44 46 19 53 7 -60 15 -21 26 2 -58 16 38 -20 -9 -56 -17 -6 3 -52 -59 51 -4 36 54 -49 -13 24 22 55 1 39 23 -48 -27 -50 35 42 31 0
57 18 -10 -33 -48 -26 32 -41 -1 22 36 -17 -27 60 7 -50 56 -44 15 -12 -45 59 -9 13 43 -14 34 -24 47 55 -30 -2 3 -28 8 -53 42 31 21 -39 0
-58 -46 39 51 -8 -36 10 -1 42 -14 2 50 25 -11 22 20 -13 31 -40 -32 -3 -53 5 59 -44 27 -57 -35 43 -60 12 29 -49 19 -9 6 55 -28 -45 -24 0
50 59 22 30 -40 43 29 -46 -53 37 6 -55 7 -27 48 -42 -51 56 12 33 19 -5 -3 -49 17 -45 16 41 -15 -47 39 52 1 11 23 -36 -35 2 20 4 0
-48 46 -10 -4 29 -12 -11 -43 3 26 -8 -6 30 -42 2 -60 53 -49 36 -45 40 -17 37 38 -24 1 -13 20 16 -32 -18 50 -41 -9 -47 -19 58 -56 35 14 0
4 -27 -17 -11 47 5 -23 38 28 7 51 37 52 -34 -53 33 -29 39 -59 -24 3 8 50 -25 -16 -21 26 -32 22 30 43 -13 19 -44 -42 49 12 -48 31 18 0
44 12 41 -11 19 -56 -38 -13 -7 -22 -20 -51 46 -39 29 -31 18 34 -42 36 -32 -6 23 43 48 57 4 -50 60 -53 2 -58 3 21 -16 -24 -1 -15 27 -59 0
-15 44 28 39 -3 59 57 48 45 34 -13 19 26 17 8 20 -16 -56 -25 -9 31 14 -33 -22 -29 -35 -41 54 -52 2 -50 49 -23 37 32 5 -51 -11 -6 38 0
50 25 -56 -42 -29 -5 -17 -8 -22 -58 -2 -52 48 15 7 38 -1 27 -36 -40 -10 -26 11 -3 -60 32 21 39 -9 57 -12 -31 -41 23 -45 -4 -20 53 24 -51 0
-38 22 49 -53 -10 -24 8 12 46 -25 56 15 34 43 -58 -13 7 -30 39 -5 29 41 -47 52 -42 27 4 -54 -31 -57 2 -21 -59 -37 35 -50 -18 40 14 1 0
2 -56 -7 20 36 -46 -38 -15 -17 41 57 -21 -22 24 -34 18 5 -50 -19 -48 -43 59 6 -11 -3 30 -23 29 -49 33 47 35 55 44 -32 42 52 -14 9 28 0
14 -47 -59 41 5 -6 -26 22 46 -7 25 -33 3 -56 -18 -60 -17 34 40 -2 48 51 11 -23 -27 -10 57 19 -4 58 -36 44 49 32 -30 -28 -43 38 -1 -12 0
10 -5 24 -37 56 40 42 7 14 -25 58 8 -47 39 57 -49 18 1 -46 6 -30 -9 31 35 -22 45 51 34 26 -33 -50 -28 53 43 -55 -27 -60 -20 2 17 0
30 58 59 -12 -53 34 2 47 -1 -33 16 28 5 36 -29 35 -11 10 45 -4 24 -26 42 60 -56 57 -44 -9 -49 -18 3 -14 40 31 -20 37 8 -13 25 -23 0
-37 -33 -9 12 27 41 -42 -23 -25 3 -36 -60 -46 -52 -6 -14 -26 17 -56 38 -35 -32 -57 -11 7 16 -8 -58 15 18 -4 39 30 -44 2 -24 -21 49 13 47 0
20 -41 -40 -37 -22 -2 15 3 -42 19 -55 -51 -1 35 -48 -26 -32 39 60 -58 13 18 -59 36 4 56 -14 45 52 -57 -17 54 -53 6 -24 -43 -27 -44 25 21 0
44 -37 -50 47 -60 -36 -35 -29 57 18 -15 -11 32 -28 -13 -22 -34 5 19 -21 -39 41 -24 -42 14 27 -8 48 -25 -23 -49 -46 9 20 6 51 -38 -3 -10 -4 0
42 -56 -19 -3 -52 -9 -5 -29 -14 41 34 -15 36 8 -23 -38 57 10 2 25 -59 28 27 46 7 32 43 60 55 -11 -54 48 30 -17 -44 37 -58 -22 6 -45 0
-59 2 31 -26 4 16 -55 53 12 50 34 14 46 48 -11 37 8 28 36 -5 -45 56 44 29 42 58 -49 35 -24 60 -32 -1 43 23 -6 -52 -41 27 15 38 0
-29 31 -48 -11 -12 -60 33 -8 3 -36 -32 25 -4 19 -40 -38 57 22 6 27 30 44 -21 -46 16 10 -20 -42 -15 1 28 -50 13 -56 -7 35 47 37 -43 -51 0
19 -3 29 -47 -54 7 1 -8 -2 -41 42 46 39 -57 59 -25 -26 -9 60 -22 48 43 -40 45 5 -24 52 50 -14 -10 -6 27 -15 58 -55 17 -11 53 36 56 0
48 25 -27 -22 53 58 -49 -4 -56 -42 -41 -40 -11 28 -17 -47 29 43 -5 14 50 18 37 -24 55 -54 31 26 30 -52 -33 10 12 2 16 -45 -57 -44 8 -15 0
-53 4 -54 -28 -32 -2 -48 -23 -59 38 14 -11 -5 40 30 34 -26 27 22 -16 -42 33 -25 -1 -17 -20 -51 -18 12 58 57 -13 -60 -21 45 15 36 41 -37 6 0
-46 -6 11 -49 54 -47 33 -3 -25 36 -27 -35 22 17 -13 18 -15 -44 24 -57 -40 60 -37 -42 -7 -29 14 -19 20 12 26 58 -56 53 39 -8 -59 48 21 -45 0
52 -19 -16 47 -40 -34 -1 5 20 -4 14 6 56 30 -29 13 -39 -12 -23 48 60 -46 -32 -49 45 -11 38 -59 -44 -21 -35 27 -36 22 26 -31 15 -43 18 -28 0
4 5 46 -41 -13 -33 1 32 23 3 12 -52 60 -24 14 40 -58 16 26 51 54 20 -30 -15 45 21 -22 -55 -31 9 48 37 53 -28 11 36 35 34 -25 8 0
-50 14 22 49 -53 43 -42 -32 1 16 59 -56 28 -21 4 -8 27 44 -29 51 38 37 13 52 46 36 -54 -15 3 -5 60 57 -34 -12 -26 30 23 -47 58 -20 0
-6 10 -46 45 52 -53 23 -21 39 -56 -58 48 2 3 28 -22 34 29 -18 -7 -47 44 42 -8 43 -1 24 26 54 13 -9 38 5 -33 -55 17 -60 51 -41 -50 0
-11 40 55 -26 -14 3 57 31 -46 -17 -5 -44 -16 30 -15 8 56 -39 54 25 -49 24 27 -18 -1 -32 -33 29 6 -41 -7 28 -23 35 -34 38 36 -9 -51 -43 0
-21 8 -49 28 -19 -26 -32 2 -35 1 60 -40 -37 -47 12 33 38 -30 51 -44 55 41 16 -52 -42 27 -3 -31 22 -20 6 24 10 34 46 -5 -54 -43 -13 18 0
-57 17 15 11 31 34 25 43 8 -41 33 50 2 46 4 28 52 -56 42 12 -37 -55 40 -32 38 22 23 -48 3 -39 19 -59 30 -60 -51 -16 -10 35 5 -7 0
-51 19 -49 29 -25 -7 52 39 42 10 3 58 55 -40 22 -5 -31 27 -41 -14 53 -15 -18 4 -38 -50 -60 24 46 6 -2 57 -12 44 -11 -8 37 -45 -17 -26 0
-51 2 38 8 41 -27 14 -19 35 31 29 45 -4 -7 -33 -32 15 20 12 49 30 -60 -6 57 23 13 39 -44 28 -24 43 -52 -55 26 -16 18 -59 37 -34 56 0
13 -20 -40 60 5 39 25 -56 -23 17 -48 -37 -29 -35 -11 -54 -4 -51 16 -55 41 50 59 -57 -42 18 -22 31 26 -58 44 9 3 -32 30 49 34 36 -45 47 0
-43 21 -8 -12 -39 -19 42 -2 -27 56 29 40 49 -16 -30 1 -59 47 -37 -31 -14 -20 -41 46 -36 38 52 15 -50 54 57 22 -58 18 -26 6 5 -60 -24 33 0
29 6 53 -24 -51 35 -4 47 -3 -26 -44 36 16 46 19 12 13 40 31 -17 -32 43 54 -18 60 -57 -9 45 10 11 34 56 -5 33 -27 23 -15 -25 30 50 0
-57 -11 35 16 20 -3 -10 53 -9 46 15 -5 -45 41 42 25 -58 -23 29 -2 39 -4 -22 -36 -51 -52 55 21 18 26 -59 -38 -47 -43 33 31 -1 -40 60 -12 0
22 -12 30 48 18 26 59 52 46 57 37 36 -39 -25 33 -20 16 -35 -1 19 -8 -28 -50 -51 15 -44 -47 -42 29 -21 -2 17 32 11 41 56 -60 6 -4 -14 0
-25 -26 20 -19 -52 46 27 47 4 10 -48 -58 -13 -8 23 -1 -28 -56 -24 6 -3 54 -32 -35 -5 -57 -12 -45 -44 18 -29 17 -55 -59 37 -16 22 30 11 -36 0
39 -48 18 57 -52 59 58 3 -42 -37 19 -30 -9 32 -6 -26 -55 51 -49 35 -50 17 -31 -16 -5 -1 56 11 20 28 13 40 10 38 41 -53 -34 -29 -54 43 0
31 -51 -10 -46 21 -37 -18 -44 23 -17 -48 -57 13 -41 47 -27 -38 52 6 -1 -20 -54 -8 -19 -55 -15 -56 -49 45 -5 -22 25 33 7 36 -4 -39 26 42 30 0
15 -25 51 17 50 16 -45 53 57 -59 -1 38 -55 39 13 23 44 -3 -8 -18 -33 -34 -31 -58 -20 -6 48 -4 35 -27 -22 12 -28 -56 49 -60 -41 -47 29 37 0
39 42 -55 -36 50 -26 48 -13 -4 12 37 41 38 24 58 53 -57 44 -59 -46 17 40 -16 8 -29 -2 -47 30 -43 -19 -18 -15 35 -7 14 45 25 -60 23 32 0
-5 45 -32 6 48 -26 19 49 14 47 7 46 24 17 -34 -59 -30 -29 1 41 23 -33 -42 -21 -55 13 -54 -43 -38 -37 -27 -44 -35 50 52 -20 -16 56 11 31 0
52 -5 -9 56 -26 37 60 14 -1 28 33 13 -27 -40 -53 -24 25 38 -57 46 18 19 -35 12 -3 39 44 36 -7 -48 59 30 -2 -16 23 -54 -58 49 -41 -31 0
32 60 6 11 42 -57 -29 24 10 59 46 -48 13 12 -58 -30 27 40 31 -16 -33 8 -44 -23 -34 -41 4 37 36 21 47 -45 51 50 -25 2 -28 -22 -52 -54 0
56 15 -11 25 -45 42 5 37 -10 -38 -7 -40 8 1 -53 20 49 30 -27 47 24 -26 -21 16 58 -12 28 -50 -32 46 -18 -29 -60 -13 22 -48 19 -6 36 -31 0
28 19 35 -8 -16 -21 -54 23 -6 33 5 47 22 -55 -36 -12 10 -58 -49 18 -30 37 25 -53 -29 42 3 26 51 11 -24 -9 -50 38 -4 -59 -57 44 52 45 0
47 8 12 29 -3 -14 -31 22 -53 30 34 -44 -48 -51 -16 36 -6 -18 38 -2 20 -28 43 41 59 5 37 11 40 -23 32 7 -13 -58 -27 4 -42 60 1 -46 0
-52 -17 -36 42 10 34 21 -38 59 35 -57 20 3 44 -22 -15 -2 -25 -39 5 -33 -16 43 -24 56 14 -19 45 -41 -50 -11 51 37 23 -7 -47 49 -28 -8 46 0
46 -3 -50 24 4 -52 -12 -6 36 -1 37 -18 33 19 -25 -55 10 -11 -5 -22 -54 29 -48 -15 32 -8 -34 -7 47 -17 -30 -20 -2 -9 -44 40 -21 -56 41 28 0
-2 -32 46 45 31 39 -51 -54 47 -9 8 -7 52 -49 20 1 -55 -42 -53 -24 -22 38 -26 60 41 34 36 50 11 -4 -56 6 18 25 -44 -21 37 14 -30 33 0
-46 -28 -59 -26 -17 53 -29 31 6 -33 44 -34 -52 9 -49 14 -12 40 -18 -1 21 -48 -19 13 45 25 11 42 51 -39 7 20 -36 60 16 15 24 -54 -43 50 0
-59 34 21 -15 -23 -32 -20 -33 40 -7 -50 43 -3 45 14 25 4 -51 -18 -54 -2 -44 42 -10 -31 -9 6 -46 27 -52 -56 37 24 12 29 -1 -57 19 -49 16 0
46 -6 25 -51 -59 -22 -42 3 -16 20 57 -27 43 -54 28 7 17 52 26 10 -11 -19 -8 47 5 30 50 9 -29 53 39 -24 -60 -12 15 41 -23 -48 -14 34 0
56 -34 60 59 27 -26 45 -9 -6 -13 -58 40 -4 42 54 23 -2 47 -36 22 44 -32 -38 31 -17 -1 -48 -46 29 25 51 43 5 -50 -19 -33 -37 -7 -3 57 0
28 -35 23 -24 -3 -52 -41 -34 14 -30 -33 15 25 38 -5 -60 16 -2 -7 27 -29 10 -58 8 46 6 -44 -17 -40 51 -42 -22 -50 4 -39 -21 -26 -13 -45 -11 0
55 54 47 -41 -26 -48 25 27 31 15 -35 -28 -57 6 20 -17 33 19 -23 -30 52 -58 9 21 -45 -49 -37 -11 34 -39 40 -43 3 42 -5 10 18 8 51 -1 0
-28 -51 58 -26 57 -13 5 32 37 -42 41 -4 -14 16 -11 -43 24 -23 -31 -36 27 -15 -33 -29 40 50 21 -49 -54 12 -56 53 10 -55 -35 -46 45 20 17 -60 0
-27 57 52 28 45 -56 48 29 8 32 -13 31 -55 -42 51 -14 59 -18 -50 1 33 -37 -41 47 58 26 -4 17 6 -30 39 -19 -21 36 60 -53 -24 -9 43 -16 0
-52 -15 25 -17 -10 -56 57 47 28 36 14 -29 33 55 -48 23 46 7 -32 39 -53 -34 -22 -30 50 60 -35 31 -1 -27 -41 12 4 45 -59 38 11 51 -49 8 0
26 46 36 24 22 -12 3 -14 55 19 54 37 -23 53 52 -4 -25 60 38 -20 10 -16 44 45 6 -51 -5 33 -49 -56 -9 -18 47 -35 -40 11 13 58 48 42 0
27 11 12 51 -38 -55 15 58 31 -35 -52 -28 -40 19 -26 20 -17 8 -53 -21 -3 -49 -13 -50 4 30 39 -48 -54 14 36 46 -41 -18 -25 -34 32 -23 2 10 0
-10 -6 -13 -44 36 -42 55 -38 -20 29 57 -34 -26 30 -22 -27 53 41 -17 -47 23 -33 -48 25 49 21 -19 12 -18 14 -60 -54 3 52 -43 4 37 56 -40 -28 0
27 -55 -45 43 -35 -4 -28 -50 -11 8 6 -29 5 56 -17 53 39 -13 -54 -60 44 31 46 23 -51 24 -18 15 34 49 30 42 -40 -57 20 41 14 -52 19 -37 0
58 10 -23 -46 28 36 24 3 57 39 -31 -33 29 1 -27 40 -15 -26 30 -19 -2 -43 -51 -16 -47 38 -50 -59 12 -5 6 22 9 56 -11 41 4 7 -8 49 0
52 22 34 -50 -45 3 35 32 -8 -39 2 -5 12 -17 9 30 -40 -20 -51 46 -48 -56 -11 -36 4 -49 -23 -27 60 -58 -15 -19 -13 -57 1 10 -47 59 -37 -18 0
25 -4 20 -12 19 46 8 1 6 -44 48 -34 -40 -53 18 -14 52 -49 -31 15 24 39 -16 28 22 -21 -11 -32 -37 -55 -7 -58 41 54 50 60 -42 -38 35 30 0
21 45 -11 15 -39 -31 -18 34 -33 -23 57 -53 2 -19 58 -30 54 -12 -42 -20 38 8 5 22 28 -16 25 -50 14 -36 -60 29 37 -48 10 6 -4 -43 55 26 0
49 -44 25 -6 46 -4 55 30 -29 53 -18 -21 7 -33 -56 -3 1 9 -38 -48 17 -12 -43 -59 26 42 47 -54 -51 -27 24 52 32 -39 37 -5 -50 -58 -36 23 0
38 -17 56 33 58 -6 4 -45 5 -30 -34 -14 -60 43 -16 -59 -32 25 24 -31 -47 3 -9 48 -8 -54 49 39 -27 -1 -22 18 53 -11 -46 -26 -35 -44 52 55 0
42 46 -45 -15 37 53 59 2 54 -20 -8 35 -7 -12 -36 56 49 -32 9 -50 57 -5 -13 6 10 18 14 -33 -29 21 11 55 -28 39 -48 38 -26 41 -23 4 0
-44 -26 5 10 -34 22 19 53 -11 14 -20 -27 -42 -2 -30 -38 16 46 56 -21 -35 18 -48 -55 39 -59 -1 -50 24 8 47 -25 17 -40 54 31 -7 -57 -12 52 0
4 20 29 3 -45 19 34 -60 -5 -10 37 -30 1 17 58 2 -26 55 -44 47 57 52 -36 12 46 -43 -16 49 -54 53 -28 51 -14 -15 -25 13 -48 24 33 56 0
58 -41 -9 47 -60 1 -15 -51 -7 38 42 53 13 -11 50 -3 -35 -39 -36 8 -21 12 37 -31 29 4 56 -25 -34 -57 -2 -23 45 -28 -27 -16 -54 6 -59 -32 0
-11 29 -24 -5 60 32 -45 -46 25 -58 13 17 7 48 40 -30 -51 56 22 31 27 -8 37 -38 34 -6 52 42 2 28 -41 54 -9 36 49 -10 43 44 -53 16 0
60 -7 23 16 -47 -35 14 -22 -38 -5 -3 -12 -10 44 -26 55 43 8 31 32 18 -1 -51 13 -2 50 57 46 -6 30 48 17 39 24 -19 -45 37 42 59 34 0
37 -57 29 55 -24 1 -8 -32 26 45 34 15 -42 -41 -21 20 -14 -60 -11 -39 -49 44 10 -16 -5 17 31 54 46 -56 -18 -19 -28 47 2 52 30 25 -27 -53 0
34 -58 -4 15 -7 13 42 -24 14 -51 8 -54 59 60 31 -38 -16 -52 -19 10 27 37 -26 21 6 -2 25 -40 22 11 48 -29 50 35 -33 -53 -28 -41 44 30 0
-6 16 42 -14 11 -51 15 28 -43 13 54 -48 29 -10 -25 -26 57 -8 20 53 -60 50 18 -24 47 17 38 -34 -4 41 19 -58 -12 5 -2 22 9 36 -23 21 0
27 -41 -3 19 -30 31 -9 -14 11 25 -8 -4 55 21 -13 54 -34 -58 -1 -10 -22 -28 36 60 45 39 -29 32 -59 -47 -12 53 -16 15 -7 -20 -51 -57 24 -44 0
-53 51 34 -8 50 52 59 1 -22 47 -58 -26 49 -30 -27 41 -10 2 -21 33 -16 57 9 32 -40 -54 24 -35 -38 -18 -42 29 -11 6 5 -25 12 7 19 -55 0
-34 -19 1 4 20 55 -28 24 43 -56 -29 15 37 3 6 59 54 -22 30 -42 53 11 -31 -36 46 -39 -52 -21 40 -41 -2 -33 48 -49 -38 -16 18 9 -26 -58 0
-31 20 32 -34 -57 44 -18 -40 -41 33 24 55 -56 22 12 -47 19 -2 9 -45 46 27 -36 25 39 -52 17 54 -42 50 -15 3 -51 11 -7 35 49 -37 43 6 0
13 -35 -42 -57 28 -4 -43 56 -37 -46 -8 33 -5 -51 10 38 -12 -11 -27 31 -3 -9 24 -22 -58 1 -59 -53 -29 52 47 2 -45 -60 7 -39 -48 40 -19 41 0
44 -36 -58 10 43 -6 5 -29 57 -3 -4 -18 -9 25 -21 42 -24 -55 -39 23 -47 -53 38 -7 26 -48 -32 -14 49 56 59 -45 -1 52 -30 -54 19 -11 -31 -60 0
24 -7 28 -11 47 39 -56 3 -48 -22 31 -25 -17 30 -2 -20 60 42 37 -10 -38 9 -35 -4 -26 44 -21 32 -19 -15 53 14 46 -5 -55 -36 -45 -59 -43 -58 0
42 13 53 7 -27 -2 33 -29 46 60 -35 -34 -47 -38 31 -50 10 48 -57 -55 37 -52 43 -21 58 3 -23 -11 -28 54 41 -32 15 17 -20 49 -39 -8 -36 51 0
13 9 -47 59 -15 40 -37 -30 21 -48 14 39 26 20 -54 57 -35 50 25 -12 -60 -7 -43 -28 -4 -17 -52 -11 32 -6 49 -53 -22 29 3 44 -36 -2 42 16 0
42 4 40 49 -34 28 -37 -8 -26 27 -13 56 -31 51 54 30 -50 -11 -44 29 33 19 52 53 -38 -22 -24 -36 12 41 16 14 15 -59 9 -39 23 43 -55 -46 0
-13 42 -40 59 6 -23 48 1 3 -8 9 -22 -38 20 55 4 50 21 30 44 -41 -35 60 -12 45 -34 24 36 -17 47 29 2 37 19 27 -58 28 25 18 54 0
49 -28 -39 -17 -31 -52 -51 1 21 20 59 9 -22 37 -25 14 16 -57 48 -42 43 5 58 -35 -50 -60 6 27 45 41 -29 4 -12 40 55 -11 -24 46 -36 53 0
17 -39 1 14 12 -41 -57 -23 7 -38 55 60 49 -35 16 -13 -11 -34 -20 52 15 26 -18 2 58 40 33 -29 32 50 -59 -48 27 36 45 -6 -46 8 -4 19 0
-14 36 -5 18 23 17 28 -37 39 57 -35 4 -22 -7 -24 3 8 -31 58 29 -13 -19 -12 43 -38 -47 26 45 21 -59 -46 1 -42 -2 51 27 -54 -41 -44 49 0
46 42 39 8 18 -52 30 -21 -57 -24 -58 -6 -9 22 -51 35 48 1 53 17 -38 -11 3 54 -47 34 -12 43 -33 44 -40 49 29 20 -26 28 -59 -5 50 19 0
-29 -60 20 -7 26 -50 -18 33 8 -15 -3 49 -53 24 48 37 39 14 -16 -42 -31 56 11 52 -34 6 -22 -43 -36 51 47 -38 -58 25 -46 44 57 12 5 -9 0
-6 48 -29 -9 -36 42 58 -56 -4 26 -45 7 -3 -37 49 -30 46 -25 -53 -54 23 47 -1 15 -52 -44 -21 -43 40 28 16 -51 -5 -39 12 -22 33 -38 59 -35 0
-9 20 43 -36 21 -2 -18 -13 33 7 51 -10 -16 49 26 17 -29 -41 -38 23 24 28 46 -34 -52 3 -1 -30 4 27 58 22 55 59 19 -25 -39 -6 60 -48 0
-52 -55 -51 35 1 -60 31 -56 36 -17 -44 -21 47 48 7 38 41 -10 43 -12 -13 4 -15 -14 46 26 53 -25 -8 23 -5 40 33 -42 20 -30 45 32 2 -39 0
-5 -26 -2 4 42 30 32 -34 -17 14 33 35 -25 -8 -29 28 27 47 54 -13 49 -57 -38 -19 -55 -37 51 18 59 -24 -16 60 7 31 -52 12 23 -48 53 -3 0
5 -19 -41 11 59 24 -18 -31 -13 -27 -23 -45 42 36 -37 25 -16 2 -50 -14 9 -28 56 55 26 -39 52 38 32 15 -48 -51 -7 -17 12 44 30 -46 8 1 0
-39 47 -58 21 15 32 50 -3 -19 28 -45 55 53 37 -5 -48 16 7 43 17 -27 41 -57 -38 -25 36 60 -2 56 -33 -24 31 -4 8 -12 34 42 -11 -40 44 0
31 -41 -58 42 19 23 -25 45 -49 56 -54 33 3 -43 -51 5 -26 -10 -7 -21 -57 17 18 15 -29 -37 2 -32 30 1 -53 8 -60 48 -6 13 38 -36 40 52 0
16 -46 -60 48 -2 7 -51 -29 -32 -59 -44 34 33 -28 -52 31 -11 49 -57 40 15 -25 -22 39 -17 45 -27 -8 21 -6 -10 -30 -36 -18 -12 4 35 -58 -56 -43 0
-31 33 -59 55 37 29 -27 32 38 -41 -35 -57 26 -5 -56 58 -16 17 50 -12 -28 -6 -52 -23 42 -44 -53 -49 -20 43 9 -30 -14 -24 54 8 -46 15 11 -22 0
31 -21 -25 47 -27 -3 20 -10 -2 -9 45 -41 -5 36 -22 -16 -51 -49 48 -13 57 52 54 -40 12 24 35 17 -60 -34 32 6 -58 42 29 -19 15 -33 -1 4 0
-17 -49 -47 -3 -50 -41 9 -1 -53 -8 -59 46 -29 42 23 56 -2 -39 30 15 -33 -16 -14 55 -52 58 11 -5 -34 7 12 -22 32 -18 38 26 37 -4 -45 48 0
34 -55 41 -44 -31 18 -15 14 13 27 -49 37 -33 -22 54 -6 -16 -20 -40 58 9 -3 29 43 23 4 30 -7 11 51 -48 -57 24 -50 19 60 38 1 -2 26 0
-57 60 26 -27 -56 30 59 -52 46 -42 18 34 32 50 40 -15 39 4 -28 -48 -24 29 -45 47 -54 10 -33 -43 25 3 16 17 49 -21 -23 -36 -44 12 -31 55 0
44 -41 -25 13 -18 43 34 28 -8 55 37 59 51 -23 42 56 -38 -15 19 -57 -21 10 7 35 -60 -9 46 20 -52 -14 -2 -30 40 -12 -48 -3 17 31 1 -50 0
7 58 17 24 52 41 11 -23 36 25 -46 35 15 26 -18 -40 -43 -34 59 57 -2 19 37 -6 -56 -39 -38 48 -14 45 55 21 -29 -8 1 -31 60 44 51 54 0
-48 20 30 -31 -45 -34 14 2 -19 27 55 -56 -60 43 17 3 46 59 -25 -41 -13 -8 42 -22 -9 -28 52 53 -50 12 35 5 38 -37 -16 47 -58 -40 39 36 0
40 42 51 -32 3 -29 2 -48 -16 -10 54 -1 11 19 6 -30 46 4 -53 23 5 37 22 24 -60 -12 17 38 -41 7 56 34 28 -55 -27 -21 -15 -18 31 -49 0
35 -19 37 -33 -29 -53 34 -28 -50 51 10 12 47 -56 -6 -16 -46 30 -11 7 -27 4 8 -14 38 26 31 -49 -60 58 52 -5 25 -3 17 -41 -2 1 -43 -42 0
46 16 -29 28 21 -9 59 23 20 14 -32 58 10 -4 30 -7 -1 6 26 -19 -13 8 40 57 -48 -18 -47 -53 17 -35 -22 -42 15 -5 -55 -37 -31 54 60 49 0
17 -58 -45 54 53 44 -49 -21 -7 5 -29 -38 20 35 -42 41 47 -6 28 -60 19 -43 56 16 -18 -59 30 1 -14 -50 -57 55 -9 -26 -36 -15 -46 -23 -48 32 0
44 60 -53 -9 -49 -2 20 21 29 -16 26 51 -35 12 -46 52 8 38 17 14 -59 -39 -37 -15 56 25 -36 11 10 1 31 -48 30 24 -42 -55 -58 -22 34 -54 0
-1 -33 -35 -13 16 20 -19 10 30 31 -2 41 55 -3 -44 -48 46 -4 -14 -47 8 50 -49 36 28 37 -24 -40 34 -42 -22 -59 52 -5 -18 25 54 56 -43 -12 0
1 -17 -7 51 -20 -19 -37 36 -58 47 -39 -56 -32 46 13 14 40 -33 9 -38 -21 -55 -3 -53 42 -4 12 11 23 5 -45 -24 -8 34 18 22 16 6 -43 59 0
31 -53 -37 -39 -13 30 -28 14 26 -29 -9 6 16 2 -12 32 46 41 -52 -35 -50 11 -1 55 -49 36 42 17 -3 15 -10 -22 5 -4 18 25 -40 8 47 44 0
14 38 19 -26 40 3 -57 -16 -20 34 49 33 44 27 25 -22 -21 -41 -18 -36 -6 -5 -31 12 -28 24 30 -32 29 -11 7 -4 2 -47 -54 13 53 8 58 50 0
10 -39 -32 51 6 -48 -1 -57 -43 44 -23 3 -56 -49 -60 -35 -37 -36 -5 59 46 -33 38 -29 -24 -15 40 2 -18 -52 -34 13 -14 28 -19 45 -58 -27 -53 31 0
21 22 30 -25 -39 -55 20 -19 -36 -32 -52 42 56 59 6 5 -35 53 -14 -40 9 -8 -23 -28 41 11 7 -51 -2 -31 26 54 12 27 24 17 -10 -50 48 -49 0
-60 27 -32 50 -58 37 14 21 -28 59 -5 -26 11 -38 -41 17 8 -1 49 -24 42 -33 -39 -51 -48 55 19 -15 46 -6 22 2 -54 44 -25 29 3 43 34 -12 0
32 48 11 -10 53 -57 13 -40 -44 23 -56 6 22 -12 -46 -33 -16 21 -50 -27 43 34 -5 -28 38 -2 35 -39 4 7 1 -18 -14 -54 8 -3 60 -51 26 36 0
48 -53 -37 54 -5 -43 -10 59 19 -20 8 30 7 44 11 26 24 -50 23 -32 40 39 36 3 38 -15 -47 4 -2 -21 29 -18 46 31 42 -51 -12 60 1 14 0
-36 58 6 -29 -26 -40 -20 47 -21 -8 41 -43 -42 -32 -59 22 -33 -18 -35 15 38 12 52 57 1 -17 -25 -2 -14 23 49 -39 -50 24 45 31 51 46 11 -10 0
32 -48 9 -24 5 23 -56 12 10 14 -58 53 20 -16 6 11 -15 44 -33 21 29 54 -35 -30 41 36 -59 -46 -25 -55 43 -45 -42 -2 -47 -40 -37 1 17 -7 0
47 -5 -26 15 -19 8 56 -28 -25 -43 57 -58 35 52 9 -12 -48 -41 -31 13 29 49 10 -1 23 40 -36 4 44 39 -11 -46 -37 -42 21 -16 -51 27 22 -34 0
-5 37 11 14 46 10 56 6 22 18 15 -34 -44 -48 -43 32 -36 -57 -58 -51 -41 17 -31 -26 13 -9 -8 4 -24 -45 -54 -52 -20 25 1 28 -40 -35 -2 27 0
-37 -35 36 -21 59 60 2 -41 5 10 42 -13 -1 51 -26 -31 47 44 53 20 43 45 17 -27 -8 32 29 40 22 -19 58 -9 49 46 -24 -4 56 18 30 -57 0
-35 21 -53 -37 49 16 -33 -59 6 -12 29 54 -15 3 13 4 52 -18 -28 -8 26 56 46 41 -43 32 1 45 -23 36 -27 19 34 14 11 44 -17 -57 -38 55 0
-56 41 22 -15 -10 -8 -2 -29 -18 -21 -7 -49 12 -47 -48 59 -35 32 42 -25 -23 43 34 -5 -36 24 -17 -44 -16 9 -60 40 31 -45 28 46 -3 4 11 -30 0
-13 6 -32 -29 -19 -56 53 50 22 12 -11 -55 1 2 -42 30 -49 58 4 -57 35 18 -28 34 54 -39 -15 -59 -26 -14 5 -38 25 -9 27 7 -45 -36 -60 10 0
1 -20 8 -27 -37 52 -3 56 46 31 -15 36 -24 -18 -47 54 49 11 -5 -16 -42 34 -7 -38 -19 60 13 -53 -26 50 44 -22 -12 -58 -30 -59 48 -43 2 40 0
2 9 -23 -4 -44 -32 60 -30 -40 18 13 8 5 -35 6 28 -39 -59 -1 56 -48 -3 -26 -11 -17 41 -53 34 54 -22 36 33 7 52 -57 15 -38 50 14 -24 0
3 52 35 48 60 9 43 25 55 2 34 -15 -38 -44 16 11 27 24 -31 29 53 -46 18 -10 -51 47 -7 17 59 13 28 8 -54 14 -42 56 -39 -4 -41 37 0
-25 28 -8 31 -18 17 -60 27 36 54 -51 -21 22 -1 53 3 -57 -32 29 30 -5 -19 -6 -24 7 -13 15 -10 -59 45 -12 39 4 -50 23 -16 20 56 -55 -9 0
15 16 23 31 13 -29 -8 -38 -45 -33 11 3 50 -1 46 59 36 12 -44 43 49 -41 22 34 60 -24 -7 -42 39 37 47 -51 57 48 -20 -2 9 28 58 -40 0
1 24 35 52 -26 6 -18 -44 43 60 -40 -46 51 -8 38 19 -56 57 15 -39 12 42 -14 -25 16 10 -28 20 -7 -31 -50 37 36 2 23 54 59 -27 -41 34 0
32 35 -23 -26 -25 2 -16 -22 -48 9 -43 -29 34 -14 -42 -49 -46 11 -51 10 21 -39 -44 -1 53 -57 19 4 24 -15 60 27 -20 -58 -8 45 31 47 -54 -55 0
30 18 46 -3 22 57 -60 -59 -44 8 40 26 -29 -11 41 36 -4 -28 -51 -20 -27 -6 -56 53 -19 39 -15 10 -33 -16 -9 -7 -43 -13 12 -42 21 -14 38 -58 0
